ch4
Energy PNOF8 CC-PVDZ
Number of atoms                            I                5
Charge                                     I                0
Multiplicity                               I                1
Number of electrons                        I               10
Number of alpha electrons                  I                5
Number of beta electrons                   I                5
Number of basis functions                  I               34
Number of independant functions            I               30
Number of contracted shells                I               18
Highest angular momentum                   I                2
Largest degree of contraction              I                8
Number of primitive shells                 I               42
Atomic numbers                             I   N=           5
           6           1           1           1           1
Nuclear Charges                            R   N=           5
  6.00000000e+00  1.00000000e+00  1.00000000e+00  1.00000000e+00  1.00000000e+00
Current cartesian coordinates              R   N=          15
 -1.49495182e-04  4.16890133e-05 -2.62482282e-04  1.56493673e+00 -4.85654320e-01
  1.27576621e+00  6.13301664e-01  1.48864596e+00 -1.31005246e+00 -5.62058417e-01
 -1.68330883e+00 -1.07630276e+00 -1.61439997e+00  6.79820811e-01  1.11371434e+00
Shell types                                I   N=          18
           0           0           0           1           1          -2
           0           0           1           0           0           1
           0           0           1           0           0           1
Number of primitives per shell             I   N=          18
           8           8           1           3           1           1
           3           1           1           3           1           1
           3           1           1           3           1           1
Shell to atom map                          I   N=          18
           1           1           1           1           1           1
           2           2           2           3           3           3
           4           4           4           5           5           5
Coordinates of each shell                  R   N=          54
 -1.49495182e-04  4.16890133e-05 -2.62482282e-04 -1.49495182e-04  4.16890133e-05
 -2.62482282e-04 -1.49495182e-04  4.16890133e-05 -2.62482282e-04 -1.49495182e-04
  4.16890133e-05 -2.62482282e-04 -1.49495182e-04  4.16890133e-05 -2.62482282e-04
 -1.49495182e-04  4.16890133e-05 -2.62482282e-04  1.56493673e+00 -4.85654320e-01
  1.27576621e+00  1.56493673e+00 -4.85654320e-01  1.27576621e+00  1.56493673e+00
 -4.85654320e-01  1.27576621e+00  6.13301664e-01  1.48864596e+00 -1.31005246e+00
  6.13301664e-01  1.48864596e+00 -1.31005246e+00  6.13301664e-01  1.48864596e+00
 -1.31005246e+00 -5.62058417e-01 -1.68330883e+00 -1.07630276e+00 -5.62058417e-01
 -1.68330883e+00 -1.07630276e+00 -5.62058417e-01 -1.68330883e+00 -1.07630276e+00
 -1.61439997e+00  6.79820811e-01  1.11371434e+00 -1.61439997e+00  6.79820811e-01
  1.11371434e+00 -1.61439997e+00  6.79820811e-01  1.11371434e+00
Total Energy                               R     -4.039111029730174e+01
Primitive exponents                        R   N=          42
  6.66500000e+03  1.00000000e+03  2.28000000e+02  6.47100000e+01  2.10600000e+01
  7.49500000e+00  2.79700000e+00  5.21500000e-01  6.66500000e+03  1.00000000e+03
  2.28000000e+02  6.47100000e+01  2.10600000e+01  7.49500000e+00  2.79700000e+00
  5.21500000e-01  1.59600000e-01  9.43900000e+00  2.00200000e+00  5.45600000e-01
  1.51700000e-01  5.50000000e-01  1.30100000e+01  1.96200000e+00  4.44600000e-01
  1.22000000e-01  7.27000000e-01  1.30100000e+01  1.96200000e+00  4.44600000e-01
  1.22000000e-01  7.27000000e-01  1.30100000e+01  1.96200000e+00  4.44600000e-01
  1.22000000e-01  7.27000000e-01  1.30100000e+01  1.96200000e+00  4.44600000e-01
  1.22000000e-01  7.27000000e-01
Contraction coefficients                   R   N=          42
  6.92000000e-04  5.32900000e-03  2.70770000e-02  1.01718000e-01  2.74740000e-01
  4.48564000e-01  2.85074000e-01  1.52040000e-02 -1.46000000e-04 -1.15400000e-03
 -5.72500000e-03 -2.33120000e-02 -6.39550000e-02 -1.49981000e-01 -1.27262000e-01
  5.44529000e-01  1.00000000e+00  3.81090000e-02  2.09480000e-01  5.08557000e-01
  1.00000000e+00  1.00000000e+00  1.96850000e-02  1.37977000e-01  4.78148000e-01
  1.00000000e+00  1.00000000e+00  1.96850000e-02  1.37977000e-01  4.78148000e-01
  1.00000000e+00  1.00000000e+00  1.96850000e-02  1.37977000e-01  4.78148000e-01
  1.00000000e+00  1.00000000e+00  1.96850000e-02  1.37977000e-01  4.78148000e-01
  1.00000000e+00  1.00000000e+00
Alpha Orbital Energies                     R   N=          34
 -1.12198575e+01 -6.96807410e-01 -6.66930856e-01 -6.42524013e-01 -6.41727517e-01
 -2.07538810e-02 -6.31363861e-03 -6.19240399e-03 -1.54693537e-03 -8.55284412e-04
 -2.07498764e-02 -6.28300016e-03 -6.18002761e-03 -1.54086899e-03 -7.93553269e-04
 -2.14321707e-02 -6.30288116e-03 -2.27761947e-03 -1.56553788e-03 -8.63141321e-04
 -2.21817571e-02 -1.76569310e-03 -1.61723055e-03 -1.61517057e-03 -9.24989311e-04
 -1.77993699e-04 -1.75968487e-04 -1.62659912e-04 -1.58887321e-04 -1.56383084e-04
  0.00000000e+00  0.00000000e+00  0.00000000e+00  0.00000000e+00
Alpha MO coefficients                      R   N=        1156
 -1.00387614e+00 -9.14633380e-03  8.80450173e-03  6.52987977e-05 -3.02649845e-06
  7.60168475e-06  3.79589674e-05 -4.04771176e-06  2.22217105e-06 -2.40092540e-06
 -9.57637530e-07 -2.38280496e-06 -1.05044777e-05  5.91697272e-06  1.66023702e-03
 -1.02386885e-03 -6.03993400e-04  1.87537957e-04 -4.91247802e-04  1.43723914e-03
 -1.11348368e-03 -2.35961110e-04 -5.79770461e-04  5.00274753e-04  1.41531636e-03
 -1.12582475e-03  2.17676784e-04  6.52324944e-04  4.09582086e-04  1.45453574e-03
 -1.08822647e-03  6.12768321e-04 -2.63729079e-04 -4.31202073e-04  1.41990973e-02
 -2.17213502e-01 -1.37928939e-01 -2.68682562e-01  8.37500871e-02 -2.04145643e-01
 -1.22408040e-01  3.81365728e-02 -9.26876036e-02 -1.29126325e-03 -1.60476469e-02
  5.06968663e-03 -8.37207385e-03  5.64118704e-03 -4.26327902e-01 -1.45627091e-01
  2.17183118e-02 -6.72382656e-03  1.80983088e-02 -6.48960435e-03  2.42783199e-02
 -6.69784890e-03  6.77525538e-03 -9.91524399e-03 -5.55154684e-03  2.46010999e-02
 -9.92486726e-03 -1.95092684e-03 -9.27575436e-03  9.01855133e-03  3.00018897e-02
 -1.18115215e-02  4.02204026e-03 -3.96512812e-03  1.30534777e-02 -1.90800336e-01
 -1.22032172e-01  2.98072324e-01 -1.21864932e-01 -1.75244871e-01  1.35896461e-01
 -5.55129507e-02 -7.95820763e-02  1.44605315e-03  1.56272644e-02 -6.57033663e-03
 -8.18916723e-03  8.52737484e-03  3.90575012e-02  3.88114804e-02  1.00840156e-02
 -3.99910972e-03 -4.43252568e-03  7.74856406e-03  2.73699701e-02  1.04392460e-02
 -9.28113978e-04 -7.86694690e-03  5.73278674e-03  2.65675343e-02  8.10971079e-03
 -7.15196839e-03 -7.50074521e-03 -4.31036808e-01 -1.50866087e-01 -2.18187969e-02
  9.29554610e-03  1.59288593e-02  1.15186156e-02 -1.66407215e-01 -1.05756408e-01
  1.07212108e-01  2.96904517e-01  2.13279743e-01  4.83300909e-02  1.35570489e-01
  9.84219828e-02  1.85684698e-03 -4.53585934e-03 -1.51353076e-02  1.13147836e-02
 -8.46659492e-03  4.84251799e-02  4.00280619e-02  3.37067343e-03  9.13145258e-03
  6.47076361e-03  1.86504507e-02  2.87478589e-02  4.03625167e-03  1.09513733e-02
  5.09677501e-03 -4.32897622e-01 -1.55955499e-01 -7.46035077e-03 -2.31608308e-02
 -1.41660687e-02  3.55206802e-02  3.47353696e-02  2.53622284e-03  9.54355732e-03
  7.17912020e-03 -1.14082501e-02  1.65580103e-01  1.05070838e-01  9.96059516e-02
  2.67524136e-01 -2.52833013e-01  4.59206968e-02  1.21894369e-01 -1.16136546e-01
  2.01091910e-03 -7.25720259e-03 -1.61132705e-02 -8.34070275e-03  8.06705418e-03
 -4.92391323e-02 -4.02762159e-02  3.11025739e-03  8.26570721e-03 -7.68912093e-03
  4.32924177e-01  1.56436836e-01 -8.71253714e-03 -2.03389667e-02  1.74382626e-02
 -2.17264660e-02 -2.97245941e-02  3.69028767e-03  1.00549357e-02 -6.74535618e-03
 -3.33409133e-02 -3.38585134e-02  4.01778561e-03  7.91656110e-03 -8.44861491e-03
 -1.93953262e-01 -6.09053911e-01 -5.80444150e-02 -2.36879432e-01 -6.12679651e-01
  5.58096996e-01 -3.24950606e-02 -6.92116279e-02  5.45804904e-02  2.13836300e-03
 -6.40023168e-03 -1.65163790e-02 -3.80213191e-03  1.16195902e-02 -4.47964937e-03
 -9.37223834e-03 -1.97964047e-02 -2.35131841e-02  1.62699394e-02  9.46495821e-01
  1.63712997e-01 -2.25561838e-02 -5.92456486e-02  5.18379938e-02  1.27620317e-02
 -5.11716677e-03 -8.27024847e-03 -1.36827149e-02  2.80649304e-02  8.07784499e-03
 -6.02169827e-03 -1.65982309e-03 -2.95983672e-02  1.48945930e-02 -1.96548546e-01
 -6.15953927e-01 -5.55364010e-02  2.36922803e-01  6.92614218e-01  4.55235291e-01
  2.19216203e-02  7.62740260e-02  4.44992818e-02 -5.47014199e-03  7.94445743e-03
  1.31908320e-02 -1.12650135e-02  7.84148456e-03  2.76054241e-03 -4.76184631e-03
  2.14213068e-03  3.20333034e-02  1.09042091e-02  1.26476359e-02 -8.46352457e-03
  3.72383784e-03  1.83200500e-02  2.61055012e-02  9.45942974e-01  1.62887739e-01
  2.25748362e-02  6.72490031e-02  4.39844358e-02  7.24247915e-03 -6.48270888e-03
  1.91796461e-02  2.48503365e-02  1.04441607e-02 -2.04920438e-01 -6.39568354e-01
 -3.97286816e-02  6.74548456e-01 -2.82566615e-01 -4.50654410e-01  6.41166617e-02
 -2.54300530e-02 -4.51338386e-02  1.71365298e-03 -5.56744442e-03  4.68626356e-03
  4.74481821e-03 -7.21096347e-03  8.06385467e-03 -1.43396078e-02  1.58885181e-02
 -7.99790340e-03 -2.67570677e-02  1.55990202e-02 -5.68587755e-03  2.14454355e-02
 -1.91153150e-02 -1.00915031e-02  1.85330384e-02 -6.99982979e-03  2.91069732e-02
 -7.70723657e-04 -1.07077491e-02  9.35781672e-01  1.72552217e-01  6.05154469e-02
 -2.44432727e-02 -4.19301532e-02  2.10993162e-01  6.59125238e-01  4.30034827e-02
  6.53219139e-01 -1.94988453e-01  5.14773679e-01  5.40409783e-02 -1.70130535e-02
  4.83967154e-02 -5.23887686e-03 -6.41055387e-03  2.95246948e-03 -3.56317730e-03
  4.61131011e-03 -9.31405893e-01 -1.74283061e-01  5.93386325e-02 -1.76410663e-02
  4.84434488e-02 -3.10614840e-02  3.80747344e-03  2.70837876e-02  2.36060644e-03
  1.24804349e-02 -2.19028666e-02  5.10980750e-03  1.92211477e-02 -1.69516764e-02
  1.35380619e-02 -1.94520118e-02  8.99436338e-03  1.23127765e-02 -3.40987355e-03
  2.62877876e-02 -3.29667119e-03 -8.12339389e-03 -1.43269237e-02 -9.04640298e-02
 -2.41697189e-01  1.05656187e-01  9.24634157e-02  3.06936383e-01 -1.16532857e-01
 -3.94563482e-01  1.07104962e-01  4.06690211e-01  7.17899341e-01  6.36726888e-01
 -1.10264971e-02 -7.67043421e-03 -4.14869509e-01 -7.60825556e-01  3.32102467e-01
  1.20226692e-01  4.51525487e-02 -6.65629966e-01 -2.74876388e-01  3.53053498e-03
 -4.78037011e-02 -2.37606482e-02  4.28681674e-01 -4.15640901e-01 -2.77627509e-02
 -4.58295284e-02 -3.53701125e-03  1.72309799e-01  1.95398699e-01  2.56270143e-01
  5.66674487e-02  9.84789942e-02 -5.52913208e-01  1.95659805e-01  2.06954133e-01
 -2.65486055e-01 -2.56846774e-01 -3.35912633e-01  3.77101779e-01 -2.81962854e-02
 -6.68601325e-02 -3.69892810e-01 -1.89374140e-01  1.87891794e-01  1.05965907e-01
  1.09318270e-01 -4.17011469e-02 -5.50060395e-02  4.07863253e-02  4.42450863e-01
 -3.02028424e-01 -9.92436132e-02 -1.44291483e-01  1.95068764e-01  9.71031511e-02
  1.10203278e-01 -4.08813873e-02 -3.45617213e-02  7.00360595e-02  9.67806909e-02
  1.01876153e-01 -1.34610865e-03 -7.65982966e-02  1.84896117e-02  5.77579368e-02
  1.01407711e-01 -5.42629995e-01  3.08329176e-02 -2.74659197e-01 -2.71367234e-01
  1.36011593e-02  4.13028739e-01  3.56033240e-01 -2.29516427e-01  1.72359189e-01
  2.02055825e-01 -2.23075910e-01  2.71675511e-01  9.96683346e-02  1.05888576e-01
  1.59093886e-02  7.21640838e-02  1.52154068e-02  9.91675353e-02  1.02423573e-01
  8.48445978e-03  6.43641898e-02  6.60975270e-02  4.16132125e-01 -2.79364919e-01
 -1.88031797e-02  1.64276082e-01  2.14812140e-01  1.03777470e-01  9.49740737e-02
  4.29206980e-02  5.00956854e-02 -7.77747615e-04 -1.16961573e-02 -2.51648046e-02
  4.23593416e-02  2.12667712e-01  2.03337595e-02  2.60762132e-01 -2.09388995e-01
 -1.77666051e-02 -2.30843875e-01 -6.15276742e-01  1.71958689e-01 -1.84307192e-01
  2.26349097e-01 -5.27752356e-02 -2.10773981e-02  1.28319334e-02  6.19919908e-02
 -2.02822787e-02 -2.06309614e-02  1.15176293e-02 -1.65171587e-02  8.14104750e-03
  2.30949092e-02  5.94274704e-02  9.16754034e-03 -1.52090440e-02 -1.52832021e-02
 -1.69946798e-03  7.33607049e-02 -1.87182399e-02  1.12489453e-03 -1.99356123e-01
 -7.45773586e-03 -2.79639317e-01 -1.54978022e-01 -2.69756348e-01  1.45499656e+00
  7.00157200e-01 -4.28871842e-01  1.73155811e-01 -2.05818913e-01  1.10887256e-01
  6.55554080e-03 -3.94171757e-02  1.33358819e-01  2.14800095e-02 -1.76567296e-02
  5.96221938e-02 -9.54053642e-01  4.77402913e-01  7.26021920e-01 -1.03167234e-01
  5.62188116e-01 -2.30568960e-01 -2.34162466e-01 -3.16523117e-01  4.25258482e-02
  2.17390453e-02 -4.62263015e-01 -5.43152837e-02 -2.16169831e-01 -4.44549659e-02
 -1.31796920e-01 -3.91617798e-02 -4.53254475e-01  2.71821064e-01 -1.33386987e-01
 -2.75696941e-01  1.74896191e-02  3.72476621e-02 -4.06263217e-02  2.04018082e-02
  2.96105813e-01  5.97805628e-02  6.94958978e-02 -4.02188570e-01 -4.70169389e-02
 -9.55738879e-01 -1.50044535e-01 -4.67816104e-01  1.21005373e-01 -1.27617130e-01
 -7.65013396e-02  6.01962092e-03 -2.86287989e-01  5.15988130e-01  5.30060901e-01
 -3.21268659e-02 -2.90002763e-02 -6.96770721e-02  4.15068955e-02 -4.08348433e-01
  9.52182350e-02  5.70351813e-02  1.25881903e-01  6.73489931e-01 -3.71608962e-01
  2.03504108e-02 -1.37971095e-02  2.70473245e-01  2.54969910e-01  5.56851743e-01
 -4.33328920e-03 -8.76156666e-03  2.03774715e-02 -4.10906019e-01  1.79486454e-01
 -5.78399182e-02  3.94392628e-01 -1.90515731e-01  6.04209857e-02 -1.35740821e-01
 -3.90516709e-01  1.30661678e-01  3.13004699e-01  3.95597759e-01 -2.65329946e-03
  1.49841672e-03 -4.33904381e-03  2.69402299e-02 -3.97707701e-02  1.16092635e-02
 -1.93825946e-02  3.33719418e-01 -1.03921113e-01  5.58701829e-02 -2.47102357e-02
  1.17130964e-02 -1.80898743e-02 -8.30488635e-03  1.27055976e-02 -2.05017929e-02
  1.58531676e-02 -5.41867506e-02 -3.34963638e-02  2.25465447e-02  4.88880686e-03
  9.25468600e-03 -3.46881187e-02  4.00622493e-01 -1.54381007e-01  8.31809665e-02
 -4.01883930e-01  1.34070554e-01 -7.86989610e-02  2.80860131e-01  3.13863443e-01
 -4.26179829e-02  3.69489517e-01  3.59020549e-01  1.17316158e-02 -8.91671916e-04
  8.13953327e-03  2.49192454e-02  5.26441677e-02  3.66196598e-02 -2.09388360e-02
 -1.01785438e-03 -3.06363922e-02 -9.33132937e-03 -4.80292629e-03  1.99763189e-02
 -2.89335066e-01  1.61095332e-01 -1.20949900e-01  1.56371626e-02 -9.07522474e-03
  2.76276413e-02 -6.22887045e-02  2.00486966e-03 -2.54471451e-01 -4.51770455e-01
  2.20938295e+00 -4.32624665e-01  2.00476571e-01  1.21853625e-03  9.49708949e-02
 -4.50164536e-02  7.65305917e-02 -2.87517202e-02 -5.39173378e-02 -1.78544960e-02
 -8.80077324e-02  9.26403906e-02 -3.96555298e-01 -3.52410935e-01 -7.31913231e-02
  1.80032605e-02 -1.02636786e-01 -6.38875230e-01 -1.26383739e-01  1.67943981e-01
  5.98336321e-02 -8.11085269e-02 -5.97635261e-01 -1.57686560e-01  1.20696979e-01
 -1.34629078e-01 -5.80874958e-02 -1.04027221e+00  3.49924957e-01 -5.68812063e-01
  2.00615490e-01  4.04852797e-01 -4.28543775e-02 -8.32913786e-02  2.40670030e-01
  3.97929899e-01  1.86146629e-01 -4.05751958e-01 -1.51377058e-02 -9.23048047e-02
 -7.94057993e-02  1.46224707e-01  1.21795233e-01 -1.91911187e-01 -3.10649566e-01
  2.52585968e-01 -1.99724078e-03 -2.52710983e-02 -4.14566010e-01  1.15763688e-02
  5.30773832e-01 -5.62641388e-01  2.80047230e-01  4.03128765e-01  2.35287377e-01
 -2.35629243e-01 -1.61402883e-01 -4.24163079e-02  1.51254657e-01 -6.61278136e-02
  1.03517768e-01  4.85344810e-01 -2.62272056e-01  2.76266884e-02 -9.49222329e-02
 -6.11661817e-01 -2.59348246e-02 -5.60049955e-02  4.00903087e-02  3.89135148e-01
  2.14603837e-01 -1.08382726e-01 -6.34613757e-01 -2.03605841e-01  9.02286769e-02
  3.09355229e-01  1.56676298e-01 -5.43887604e-01  3.04623631e-01  5.25098223e-01
  3.19784431e-02 -2.27238434e-02  4.51562761e-01 -7.22105986e-02 -1.99028611e-01
 -1.26835067e-01 -6.36256045e-02  2.74522182e-01  4.71712325e-01 -7.60040743e-02
  8.12208011e-02  2.86974807e-02  7.94526700e-01  1.18117604e-01  6.96586904e-02
  1.78964525e-02  4.07956334e-02  6.01279152e-01  5.33082168e-01 -2.55334549e-01
  1.47123830e-02  2.14594351e-02 -2.23370617e-01  1.08457623e-01  4.11910127e-01
  6.88786812e-01  3.97267576e-03  4.77187765e-03 -8.49689113e-02  1.24559049e-01
 -8.80584353e-02 -2.21984392e-01  2.80250689e-01 -2.02741772e-01 -2.65953814e-01
  2.37771360e-01  3.28580317e-01  6.03822404e-02  1.57025041e-01  8.73963055e-02
 -3.89230344e-02 -1.08926787e-01 -5.24007930e-01 -4.21142125e-01  7.56038624e-01
 -4.16552056e-01  1.74237073e-01  3.62586316e-01  5.99550646e-01 -2.80569098e-01
  2.39546363e-01 -3.37599419e-01  2.69124994e-01 -3.77286907e-02  3.54345896e-03
 -1.09121545e-02 -3.45334790e-01 -1.62636331e-01 -1.24807071e-01  7.14401937e-01
 -1.17294940e-01  9.08306601e-03 -4.04543759e-02  4.22239739e-02 -7.78363124e-02
  3.15325830e-01  2.25627584e-01 -2.62849987e-01 -7.07878404e-02  2.17944798e-01
  1.13285725e-01 -1.38800813e-01  2.04730329e-01  7.37122449e-01 -3.44551264e-01
 -7.94606755e-02 -2.68390067e-01  5.53870732e-01  2.82828110e-01 -1.47694541e-01
  4.03697923e-01  4.72068472e-01 -3.38210235e-01 -4.32839336e-01  2.92388448e-01
 -5.30666611e-01 -5.87323949e-02 -7.91414771e-02  1.63437337e-02  3.84260171e-02
  2.24183389e-02 -2.34651257e-01 -6.16718642e-01  1.57556956e-01 -3.81173272e-02
 -7.93978992e-02 -9.93214024e-03 -7.92271957e-02  1.89429996e-01  4.82133463e-01
 -8.63452835e-02 -1.11527831e-01 -5.66017120e-02  2.75745847e-02 -4.11042705e-02
 -1.52391801e-01  1.02888747e-01  6.81081354e-01 -3.71608271e-01  2.23855503e-01
 -5.44895152e-01  2.99619216e-01 -6.16403482e-01  3.00235285e-01 -4.26987045e-01
 -2.50858543e-01 -2.37970369e-01 -8.98963850e-02  5.61522706e-02  8.76688485e-02
  6.43705668e-01 -9.44301817e-02  2.43144262e-02  4.31028606e-02 -2.13831418e-01
 -3.17232333e-01 -6.63824044e-01 -1.06842053e-01  6.23824159e-02 -1.63237334e-02
 -5.10051575e-02 -1.00889675e-02  2.04471238e-01  4.27653769e-01 -8.65585684e-02
  1.85569497e-01  1.88060009e-01 -9.64493415e-02 -2.35569409e-02  6.76795606e-01
 -2.15537867e-03  5.32166386e-01 -2.79748096e-01 -3.17970235e-01 -3.13328512e-01
  2.00599588e-01 -6.73444529e-01  4.19273111e-01  2.14093970e-01 -6.75984738e-01
 -1.65424226e-01  1.89414838e-01  2.77527323e-03 -5.37710681e-02 -1.96170124e-02
 -1.29298964e-01  2.02312930e-02  4.76116435e-02  3.94390050e-02  3.67916497e-02
 -1.71357839e-01 -4.98756710e-01 -4.30819487e-02  2.19799056e-01  6.66501201e-01
 -3.65711287e-01  1.51376890e-01  3.10059634e-02 -5.95224881e-01  4.21201774e-01
  1.84246330e-02  3.91562783e-02 -8.47648021e-02 -1.16557607e-01 -4.36723875e-01
 -5.44633953e-02 -3.97351814e-02  8.07296919e-02 -2.96563977e-01 -7.93464218e-01
 -1.25309689e-01 -6.86837342e-02  3.93388584e-02 -2.00594221e-01 -8.26631756e-01
  9.40086971e-02  4.35880226e-02  1.88894385e-01 -2.93302162e-01 -4.37348398e-01
  9.78687700e-02  2.03978605e-01 -3.27120754e-01  1.18039327e-01  5.02599777e-02
  1.04181169e-01  3.43107257e-01 -6.70040185e-01 -6.08535282e-01 -2.30609143e-04
  8.00761995e-01  2.52162735e-01 -6.30250877e-01  6.09610157e-01 -1.28107846e-01
  8.35672088e-02  2.56267133e-01 -2.45932949e-01 -1.00539731e-01  3.13986833e-02
  3.65677916e-02 -1.63201260e-02 -4.68859279e-02 -1.30695310e-01 -9.18711834e-01
  1.34327093e-01  6.24410114e-02  2.62984980e-02 -6.21701124e-02  1.16631681e+00
 -1.07076774e-01  3.96679930e-02 -1.35534220e-01 -1.95354058e-02  8.14409989e-01
  1.76498313e+00 -1.39418854e+00 -9.75020012e-02  6.83131685e-02 -2.98302032e-02
 -3.49007954e-01  1.59211961e-01 -2.60051017e-01 -2.46401801e-02 -5.82097945e-01
  7.41751470e-02 -2.11995461e-01  1.79012112e-01  6.13608915e-01  1.21910097e-01
  3.06231836e-01 -8.22777916e-02  2.62668437e-01 -3.77815629e-01  2.56188459e-01
  1.16887646e-01  4.68662760e-01 -4.04643014e-01 -1.99848440e-01  2.24675502e-01
 -1.70629230e-01 -4.31545714e-01 -3.20934684e-01 -4.08644620e-01  2.64680114e-01
 -5.65849369e-01  2.63364839e-01  2.99167894e-01  3.93835936e-01  8.60097791e-01
 -5.59800818e-01  1.88065136e-01 -6.36081557e-02  1.14918036e-01  5.55421230e-01
 -2.08841950e-01  6.14519984e-01  1.34244017e-01  9.71233299e-01 -2.10386347e-01
  6.27302293e-01 -4.50403101e-01 -1.46479745e+00  3.16856454e-01  4.56395158e-01
 -1.59961812e-01  4.12697640e-01  4.88341266e-01  1.88494357e-02  1.98724518e-01
  1.79334695e-01 -1.19248793e-02  3.76316558e-01  2.98099715e-02  6.04668798e-02
 -2.63284014e-01 -1.99143679e-02  2.46261715e-01  4.84265751e-02 -1.08534622e-01
  8.87408575e-03  1.57640967e-01  2.26944138e-02  4.23077082e-02 -1.70273375e-01
 -4.88246773e-03 -2.03683058e-01  9.19667638e-02  6.24574058e-01  6.49691040e-01
 -3.76694827e-01  1.38402785e-01  9.50038124e-02 -1.09107973e+00 -2.02435686e-01
  2.94493079e-01 -1.75398062e-01  6.54891478e-02  1.55191946e-01  6.04199754e-02
 -4.34046552e-03 -1.00157836e+00  9.62253633e-02  6.29677164e-02 -5.76004517e-02
  1.48449531e-01  6.19056654e-01 -3.10504585e-02  8.21418429e-02  5.18970620e-02
 -2.23995183e-01  7.04306371e-01 -6.67483950e-02  1.15539266e-01  1.62739416e-01
 -8.05962637e-02  1.41058604e-02  2.86598370e-02 -6.04792355e-02  2.87403881e-01
 -2.80085981e-01  1.79386752e-01 -5.61221437e-01  4.05180401e-01 -3.24983413e-01
 -3.26980790e-01  6.22539236e-01  7.19439365e-03 -1.48456523e-01 -4.06897053e-01
  3.41176601e-02 -4.97068619e-02  3.91254539e-01 -8.03269204e-02  3.96435328e-01
  5.94755792e-02  4.23619914e-02  5.90741355e-01 -5.88868849e-01  1.28319995e-01
 -6.28895211e-02 -3.23587795e-03  2.12102255e-01 -2.13040326e-01  5.13178379e-02
  2.21835701e-03  4.06521017e-02  4.17876005e-01 -6.08720882e-01  4.09535019e-01
 -3.10142689e-01 -5.16284182e-01  3.96422008e+00  1.47659482e-01 -1.62184974e-03
  4.72643074e-02  1.40734915e+00  3.57111291e-02  3.49096471e-01  4.31542132e-02
  2.50643254e-01 -2.05418190e-01  7.35550572e-02 -2.36703693e-02 -3.70189055e-01
 -2.45576279e+00  5.24673675e-01 -2.10878906e-01  5.00792007e-01 -2.12387973e-01
 -1.21392607e+00 -1.23038208e-02  3.02158934e-01 -2.99934698e-01 -5.62945046e-02
 -3.26340224e-01 -1.59252305e-01 -8.58948043e-02 -8.49231534e-02 -6.15220601e-03
  1.73690619e-02 -1.16400780e-01 -1.07114412e-02 -4.93695475e-02 -1.54569147e-01
 -2.58050762e-01  1.95876928e+00 -1.56858306e-01 -1.72092137e-01 -5.54401767e-02
 -1.37615625e+00 -1.87724187e+00 -5.92636437e-01 -6.90048223e-02  1.46535802e-02
  5.01374768e-01 -1.60346237e-01  9.47864067e-02  8.28748717e-02  6.06728509e-01
 -4.32284029e-02  2.45108865e-01 -8.84357823e-02  1.69104052e-01  1.03461058e+00
  2.33494973e-02 -9.16120746e-02  3.06231790e-01 -4.90607334e-01 -2.91595228e+00
 -1.41097260e-01 -6.69996879e-01 -4.92928768e-01 -1.03414238e-01 -6.70882189e-01
 -5.05541351e-02  2.69365252e-01  1.97336899e-01  2.39215563e-02  4.15393453e-02
 -2.66889900e-01  9.02134006e-02  2.41679176e-03 -2.39960975e-01  8.58143473e-01
  6.73582026e-02 -2.46074798e+00  3.18262428e-02  6.38484846e-02 -1.85809503e-01
 -4.06867357e-01  3.66724943e-01  1.57935483e-01  1.05953122e+00 -3.69691293e-01
  8.01571990e-02  1.66036876e-02 -3.18363228e-01 -2.00104018e+00  1.24652492e-01
  5.19055556e-01 -2.16906511e-01 -1.57336957e-01 -1.05325226e+00 -1.94780047e-01
 -3.15392808e-01  4.94109261e-02  3.67467385e-01  2.25281714e+00  5.55682549e-01
 -2.76359553e-01 -1.93738018e-01  1.57172845e-01  2.64060785e-01 -1.95228782e+00
  1.87003553e-01 -1.98786876e-01  5.09089795e-02  1.38008046e+00 -1.82923319e+00
  5.13329094e-01  1.41355427e-03  5.22867362e-01  1.14571373e-01  3.44760950e-02
 -5.71986786e-03 -2.22575298e-01 -1.55580635e+00  3.21064504e-01  4.28488059e-02
  3.17263134e-01  3.16896389e-01  1.83312851e+00 -3.47344404e-01 -2.88525117e-01
  3.67019473e-01 -6.56765615e-02 -4.53663713e-01 -1.95393711e-01  4.31911399e-02
 -1.48683596e-01  3.30102873e-01  2.09680860e+00  4.70101576e-01 -7.43599536e-02
 -4.72684829e-01
Total SCF Density                          R   N=          595
  2.02030414e+00  1.05322751e-02  3.06233430e-01 -3.06821358e-02  1.72613465e-01
  1.24800664e-01  4.46202367e-04  1.07391825e-03 -1.04821801e-03  3.82593050e-01
 -1.48176362e-04 -3.60139941e-04  3.35348711e-04 -1.87923523e-03  3.77953109e-01
  4.76626959e-04  1.92768523e-03  2.02123900e-03  1.46879231e-03 -2.34576589e-04
  3.79484226e-01  8.69420549e-06  4.55013389e-04  7.52123927e-04  1.63927604e-01
 -3.23491306e-05 -5.35650921e-04  7.74460010e-02  5.17522841e-06 -1.22450745e-04
 -2.45211137e-04  1.01024765e-04  1.64000635e-01  4.98615627e-05 -2.60073066e-04
  7.67838420e-02  3.96791608e-04 -2.89395607e-05 -1.72605547e-03  3.24347710e-04
  1.77169374e-04  1.64675650e-01 -7.00834435e-05  1.31665773e-04  7.73901342e-02
 -1.51546996e-05  2.10116210e-05  3.37034277e-04  2.42840096e-03  1.52639873e-03
 -4.99695766e-04  9.90767863e-04  6.62705968e-04 -4.97971672e-05  2.49074551e-03
  6.20601632e-05  2.04168293e-04 -2.66990615e-04  1.68719208e-02 -1.38238666e-02
  3.02405480e-03  6.11824747e-03 -5.25283595e-03  1.11178616e-03  7.03584441e-05
  3.54980187e-03 -2.65907798e-05 -2.54479184e-05  3.43243233e-04 -1.38535299e-02
 -1.57158160e-02  1.89209028e-03 -5.31152655e-03 -6.33212295e-03  8.22670177e-04
 -1.15486579e-04 -6.49195328e-05  3.42499924e-03 -2.02250338e-05  2.06007377e-04
  8.48515057e-04  4.41513574e-04  2.90532552e-03  1.61914052e-02  4.58398565e-05
  1.17565199e-03  6.30092207e-03 -4.32687363e-05  3.25031365e-05 -3.31356530e-05
  2.99818221e-03  5.18785785e-05 -1.49563562e-04 -9.67630046e-04  1.90300508e-03
 -1.98300292e-03 -1.35318987e-02  8.17483666e-04 -7.80405192e-04 -5.35517351e-03
  3.51425765e-05  5.88755354e-05 -2.66621723e-05 -4.75000787e-04  2.84369238e-03
 -1.57918703e-02  1.24306087e-01  8.25071566e-02  2.37209581e-01 -7.36893826e-02
  1.92815188e-01  1.12268324e-01 -3.48641635e-02  9.16432082e-02  1.15043503e-03
  1.42710075e-02 -4.47632870e-03  7.73465881e-03 -5.26156320e-03  3.91724930e-01
  3.64418576e-04  2.00761708e-02  1.22592251e-02  9.89853670e-02 -3.06962304e-02
  8.05549853e-02  4.53824414e-02 -1.40502899e-02  3.77458397e-02  3.66653301e-04
  6.30832548e-03 -2.03238080e-03  3.35219139e-03 -2.22083188e-03  1.36249150e-01
  5.25606453e-02  2.45580923e-03 -1.21259405e-02 -7.93333199e-03 -2.64758371e-03
  4.34859210e-03 -1.13749696e-02 -1.89324285e-03  2.36305292e-03 -5.71690100e-03
 -1.77730450e-04 -1.11321524e-04 -1.27057777e-04 -1.69878934e-04  2.49676619e-04
 -1.96702712e-02 -5.07640087e-03  2.30822600e-03 -7.58989687e-04  3.76497501e-03
  2.45857085e-03  4.35635592e-03  9.93210673e-03  3.50238140e-03  2.30090712e-03
  4.75259037e-03  1.76466130e-03  7.27791445e-05 -9.97686150e-05 -2.47172519e-04
  2.31538558e-04  8.28235699e-05  6.08223483e-03  1.58877556e-03 -4.17460970e-04
  1.04596384e-03  2.01646705e-03 -9.81436365e-03 -6.62399407e-03 -1.12292168e-02
  3.43522520e-03  1.85991133e-03 -5.94375423e-03  1.78055429e-03  6.28109009e-04
  1.38181150e-04 -3.09385821e-04  1.59526906e-04  3.85802147e-05 -4.98887916e-05
 -1.58813252e-02 -4.09802043e-03  1.11547993e-03 -3.47993278e-04  1.79370065e-03
 -1.53337926e-02  1.24504998e-01  8.04398657e-02  9.28737036e-02  2.25315345e-01
 -1.98639600e-01  4.32004657e-02  1.05576826e-01 -9.33854503e-02  1.60321988e-03
 -5.66149731e-03 -1.41383496e-02 -6.61125956e-03  6.76397425e-03 -3.31064567e-02
 -2.98303035e-02  2.35811021e-03  7.04885814e-03 -6.34414941e-03  3.90520261e-01
  3.42800810e-04  1.95216218e-02  1.28486184e-02  3.91599461e-02  9.49121539e-02
 -8.36298280e-02  1.87310190e-02  4.46017175e-02 -3.92295126e-02  7.80387550e-04
 -2.37975667e-03 -5.80217750e-03 -2.82079184e-03  2.71732769e-03 -3.06311876e-02
 -1.52843500e-02  2.48904174e-03  2.48995136e-03 -1.42205029e-03  1.36221109e-01
  5.39932839e-02  9.48126165e-04 -4.86973485e-03 -2.87871445e-03  8.76457821e-03
 -5.31466045e-03  4.81302785e-03  4.90487026e-03 -2.83785817e-03  2.31504106e-03
 -1.44443277e-04  1.25225398e-04  1.62343706e-04  5.98104393e-04  4.23046036e-04
  7.19431264e-03  3.36868618e-03 -4.37119009e-04 -1.90125786e-04 -1.84554544e-04
 -8.02281491e-03 -1.95476221e-03  1.56260756e-03  2.36147848e-03 -1.18175893e-02
 -7.58700118e-03 -5.39541378e-03 -1.87604198e-03  1.15936697e-02 -2.65354192e-03
 -7.88657386e-04  5.54986189e-03 -1.42673359e-04  9.74154929e-05  3.05370197e-04
  2.13176666e-04 -5.39543976e-04 -2.81627415e-03  3.04799330e-04  1.49105050e-04
 -2.78150360e-04  7.29661723e-04 -1.92724184e-02 -4.84966669e-03  4.46469316e-04
  2.23576248e-03 -1.97365110e-03  1.05402206e-02  6.24099827e-03  4.93646701e-03
  1.17392532e-02  1.07162385e-03  2.16420076e-03  5.46737520e-03  6.15338842e-04
 -2.76788754e-04 -1.86470419e-04 -6.27199811e-04  8.72680874e-05  1.38426337e-04
  6.44361442e-03  1.40101164e-03 -4.81889313e-04  5.52812153e-04 -4.83948573e-04
  1.72115259e-02  4.26036831e-03 -4.43667776e-04 -1.16461001e-03  1.97243062e-03
 -1.53837419e-02  1.24530716e-01  8.08332148e-02 -8.49268970e-02 -2.54899498e-01
 -1.63380508e-01 -3.99495412e-02 -1.19477324e-01 -7.71092660e-02 -1.98110482e-03
  4.57559938e-03  1.28342284e-02 -9.24405524e-03  6.95476269e-03 -3.31460367e-02
 -2.97767387e-02 -3.05637321e-03 -7.65529146e-03 -5.30339470e-03 -3.33537775e-02
 -3.07863362e-02 -2.91175084e-03 -8.22086339e-03 -4.60507959e-03  3.90478130e-01
  3.62930524e-04  1.95421724e-02  1.27900865e-02 -3.56251146e-02 -1.07250931e-01
 -6.85848825e-02 -1.64593264e-02 -5.04340539e-02 -3.23055566e-02 -4.18298492e-04
  1.79765280e-03  5.47485310e-03 -3.83135463e-03  2.82848231e-03 -3.05055109e-02
 -1.51720065e-02  2.17096634e-04 -3.65387057e-03 -9.08724394e-04 -3.05163367e-02
 -1.58206356e-02 -5.84429713e-04 -2.03084083e-03 -3.17192562e-03  1.36032873e-01
  5.36888736e-02 -9.18839768e-04  4.42964045e-03  3.20902947e-03  9.23617706e-03
 -5.43353274e-03 -3.57552431e-03  4.93397601e-03 -2.87288169e-03 -1.77121301e-03
 -1.52644504e-04  1.94376831e-04 -8.57866161e-05 -5.61007717e-04 -3.32869312e-04
  7.56588565e-03  2.40093340e-03 -3.92823239e-04  1.46085210e-04 -6.64358593e-04
  2.81472890e-03  7.43857521e-04  1.62088088e-04 -4.04660216e-04  1.13813581e-04
  7.06405971e-03  1.88282205e-03  1.37999288e-03 -2.65956471e-03  1.33222447e-02
  8.43606083e-03 -5.43815728e-03 -5.54414386e-03 -1.07863555e-02 -3.04666115e-03
 -2.49486292e-03 -5.19784630e-03  3.65925979e-05  5.63983194e-05  3.22743387e-04
 -1.95284666e-04  5.63821866e-04 -1.73148952e-03 -2.27770677e-03 -2.24837860e-04
 -4.29842489e-04 -4.37636822e-04  7.45966592e-03  1.45231930e-03 -4.68375288e-04
 -9.06951993e-04  2.89317825e-04  2.18214945e-02  5.50360106e-03  3.29557307e-04
  2.65793827e-03 -1.60557247e-03  8.69755213e-03  4.98890249e-03 -3.57346529e-03
 -1.08809400e-02  4.35762870e-03 -1.61844482e-03 -5.11248699e-03  2.26489855e-03
 -5.97712814e-04  2.41631619e-04  4.06078712e-04 -1.82311027e-04 -3.01053366e-05
  6.39949312e-03  1.61086074e-03 -7.10547806e-04 -1.10368092e-04 -3.65658786e-04
 -5.76344885e-03 -3.41514706e-03 -2.24007451e-05 -1.90362456e-04 -3.12969980e-04
  1.42428856e-02  3.45559441e-03  4.24154238e-04  1.03659901e-03  1.76195292e-03
 -1.55940017e-02  1.24769781e-01  8.24789725e-02 -2.44556165e-01  1.02951630e-01
  1.68066986e-01 -1.16019501e-01  4.88580485e-02  7.96404629e-02 -1.12521775e-03
 -1.25382500e-02  5.30263673e-03  7.53698086e-03 -7.66586531e-03 -3.31936494e-02
 -2.98117317e-02 -7.95690454e-03  3.29176048e-03  4.79950764e-03 -3.29115770e-02
 -3.08179587e-02 -7.91030798e-03  2.76576727e-03  5.63313481e-03 -3.28300883e-02
 -3.08577897e-02 -7.50666569e-03  3.73015702e-03  5.65393295e-03  3.91422046e-01
  1.98472727e-04  1.98683244e-02  1.33850831e-02 -1.02294626e-01  4.30405729e-02
  7.01374314e-02 -4.72754320e-02  1.98220714e-02  3.29509938e-02 -6.55362624e-04
 -5.67840344e-03  2.34772054e-03  3.28688826e-03 -3.30937811e-03 -3.01370674e-02
 -1.50211641e-02 -1.80013981e-03  8.65788138e-04  2.96550266e-03 -2.99422345e-02
 -1.54362850e-02 -2.47013301e-03  2.48195484e-03  1.06431451e-03 -2.98922444e-02
 -1.53940006e-02 -3.45559826e-03 -1.10012392e-04  1.26922358e-03  1.35751740e-01
  5.26364090e-02 -2.41376644e-03  1.29025802e-02  7.69149212e-03 -3.60498594e-03
  6.25376974e-03  1.03900618e-02 -2.25283927e-03  3.36158816e-03  5.36415989e-03
  5.18982106e-04 -1.06647059e-04  2.36617552e-05  1.28147668e-04 -3.07270587e-04
  8.02648445e-03  1.78885101e-03 -8.82112095e-04  4.48773223e-04 -1.88931511e-04
  3.45556374e-03 -1.85175922e-04 -5.43470299e-04 -1.21468203e-04  7.20620429e-04
 -1.97708714e-03 -2.46823311e-03 -4.94654281e-04  2.95121074e-04  4.21479511e-04
  2.06843767e-02  5.20718476e-03  2.61257718e-03  1.05330473e-03 -5.36456745e-03
 -3.31100160e-03  6.28078014e-03  8.70709316e-03 -4.45062693e-03  3.33722864e-03
  4.07833338e-03 -2.19440030e-03 -2.63031393e-05 -5.88496782e-05 -3.13987376e-04
 -2.56537998e-04 -8.93740032e-05 -2.51233436e-03 -4.08318333e-04  4.76362874e-04
  1.84800255e-04  1.30031422e-05  6.66726686e-03  3.53401912e-03  2.55417300e-04
 -3.05169587e-04  8.19242968e-05 -8.12729259e-03 -2.69682913e-03 -1.05951478e-04
 -5.15888671e-04 -5.50404975e-04 -8.64279015e-03 -2.20380278e-03 -6.48234177e-04
  1.19514916e-03  1.75720605e-03 -8.66940901e-03 -5.44963164e-03  1.02042813e-02
 -4.36562581e-03  3.95737734e-03  5.49913920e-03 -2.19058174e-03  2.09540591e-03
  7.02391732e-04  2.30897145e-04  3.78287178e-05  1.43042103e-07 -2.45323319e-05
  5.61543277e-03  3.19040474e-03  1.08229209e-04 -1.09311598e-04 -4.74698999e-04
 -6.52806965e-03 -1.54048311e-03  5.99678174e-04  4.36514196e-04 -4.49305322e-04
 -5.44746664e-03 -1.07716987e-03  1.69975498e-04 -7.45465981e-04 -3.47606198e-04
 -1.42397387e-02 -3.54555456e-03 -8.89765407e-04  4.61781107e-04  1.95945985e-03
Natural orbital occupancies                R   N=           30
  9.99965558e-01  9.88150587e-01  9.86810715e-01  9.85646431e-01  9.85552305e-01
  9.12319961e-03  9.11052514e-03  9.52253067e-03  1.01108417e-02  7.31043804e-06
  2.42104753e-03  2.38512195e-03  2.24150148e-03  5.28696946e-04  7.23880204e-06
  2.23143042e-03  2.21974040e-03  7.47513248e-04  4.80565879e-04  6.78025317e-06
  4.38528167e-04  4.40010722e-04  4.48995469e-04  4.71857303e-04  6.59437362e-06
  2.33489563e-04  1.98170694e-04  2.28744493e-04  2.57451415e-04  6.51763664e-06
