hcn
Energy PNOF8 DEF2-TZVPD
Number of atoms                            I                3
Charge                                     I                0
Multiplicity                               I                1
Number of electrons                        I               14
Number of alpha electrons                  I                7
Number of beta electrons                   I                7
Number of basis functions                  I               83
Number of independant functions            I               77
Number of contracted shells                I               31
Highest angular momentum                   I                3
Largest degree of contraction              I                6
Number of primitive shells                 I               51
Atomic numbers                             I   N=           3
           6           7           1
Nuclear Charges                            R   N=           3
  6.00000000e+00  7.00000000e+00  1.00000000e+00
Current cartesian coordinates              R   N=           9
  0.00000000e+00 -1.14102651e-05 -8.13464779e-01  0.00000000e+00 -1.14102651e-05
  1.38617643e+00  0.00000000e+00  2.94398292e-04 -9.57423509e+00
Shell types                                I   N=          31
           0           0           0           0           0           0
           1           1           1          -2          -2          -2
          -3           0           0           0           0           0
           0           1           1           1          -2          -2
          -2          -3           0           0           0           1
           1
Number of primitives per shell             I   N=          31
           6           2           1           1           1           1
           4           1           1           1           1           1
           1           6           2           1           1           1
           1           4           1           1           1           1
           1           1           3           1           1           1
           1
Shell to atom map                          I   N=          31
           1           1           1           1           1           1
           1           1           1           1           1           1
           1           2           2           2           2           2
           2           2           2           2           2           2
           2           2           3           3           3           3
           3
Coordinates of each shell                  R   N=          93
  0.00000000e+00 -1.14102651e-05 -8.13464779e-01  0.00000000e+00 -1.14102651e-05
 -8.13464779e-01  0.00000000e+00 -1.14102651e-05 -8.13464779e-01  0.00000000e+00
 -1.14102651e-05 -8.13464779e-01  0.00000000e+00 -1.14102651e-05 -8.13464779e-01
  0.00000000e+00 -1.14102651e-05 -8.13464779e-01  0.00000000e+00 -1.14102651e-05
 -8.13464779e-01  0.00000000e+00 -1.14102651e-05 -8.13464779e-01  0.00000000e+00
 -1.14102651e-05 -8.13464779e-01  0.00000000e+00 -1.14102651e-05 -8.13464779e-01
  0.00000000e+00 -1.14102651e-05 -8.13464779e-01  0.00000000e+00 -1.14102651e-05
 -8.13464779e-01  0.00000000e+00 -1.14102651e-05 -8.13464779e-01  0.00000000e+00
 -1.14102651e-05  1.38617643e+00  0.00000000e+00 -1.14102651e-05  1.38617643e+00
  0.00000000e+00 -1.14102651e-05  1.38617643e+00  0.00000000e+00 -1.14102651e-05
  1.38617643e+00  0.00000000e+00 -1.14102651e-05  1.38617643e+00  0.00000000e+00
 -1.14102651e-05  1.38617643e+00  0.00000000e+00 -1.14102651e-05  1.38617643e+00
  0.00000000e+00 -1.14102651e-05  1.38617643e+00  0.00000000e+00 -1.14102651e-05
  1.38617643e+00  0.00000000e+00 -1.14102651e-05  1.38617643e+00  0.00000000e+00
 -1.14102651e-05  1.38617643e+00  0.00000000e+00 -1.14102651e-05  1.38617643e+00
  0.00000000e+00 -1.14102651e-05  1.38617643e+00  0.00000000e+00  2.94398292e-04
 -9.57423509e+00  0.00000000e+00  2.94398292e-04 -9.57423509e+00  0.00000000e+00
  2.94398292e-04 -9.57423509e+00  0.00000000e+00  2.94398292e-04 -9.57423509e+00
  0.00000000e+00  2.94398292e-04 -9.57423509e+00
Total Energy                               R     -9.306366804047548e+01
Primitive exponents                        R   N=          51
  1.35753497e+04  2.03523337e+03  4.63225624e+02  1.31200196e+02  4.28530159e+01
  1.55841858e+01  6.20671385e+00  2.57648965e+00  5.76963394e-01  2.29728314e-01
  9.51644400e-02  4.84754014e-02  3.46972322e+01  7.95826228e+00  2.37808269e+00
  8.14332082e-01  2.88875473e-01  1.00568237e-01  1.09700000e+00  3.18000000e-01
  9.09853364e-02  7.61000000e-01  1.97308006e+04  2.95789587e+03  6.73221336e+02
  1.90682495e+02  6.22954419e+01  2.26541612e+01  8.97914774e+00  3.68630024e+00
  8.46600768e-01  3.36471338e-01  1.36476537e-01  6.84416058e-02  4.92003805e+01
  1.13467905e+01  3.42739724e+00  1.17855251e+00  4.16422050e-01  1.42608260e-01
  1.65400000e+00  4.69000000e-01  1.28296421e-01  1.09300000e+00  3.40613410e+01
  5.12357460e+00  1.16466260e+00  3.27230410e-01  1.03072410e-01  8.00000000e-01
  9.57741296e-02
Contraction coefficients                   R   N=          51
  2.22458144e-04  1.72327383e-03  8.92557153e-03  3.57279845e-02  1.10762599e-01
  2.42956276e-01  4.14402634e-01  2.37449687e-01  1.00000000e+00  1.00000000e+00
  1.00000000e+00  1.00000000e+00  5.33336578e-03  3.58641091e-02  1.42158733e-01
  3.42704718e-01  1.00000000e+00  1.00000000e+00  1.00000000e+00  1.00000000e+00
  1.00000000e+00  1.00000000e+00  2.18879850e-04  1.69607088e-03  8.79546035e-03
  3.53593826e-02  1.10957892e-01  2.49829726e-01  4.06238961e-01  2.43382172e-01
  1.00000000e+00  1.00000000e+00  1.00000000e+00  1.00000000e+00  5.55524168e-03
  3.80523797e-02  1.49536710e-01  3.49493052e-01  1.00000000e+00  1.00000000e+00
  1.00000000e+00  1.00000000e+00  1.00000000e+00  1.00000000e+00  6.02519780e-03
  4.50210940e-02  2.01897260e-01  1.00000000e+00  1.00000000e+00  1.00000000e+00
  1.00000000e+00
Alpha Orbital Energies                     R   N=          83
 -1.46215385e+01 -1.23652681e+01 -1.19713523e+00 -7.27362998e-01 -5.41011026e-01
 -5.40890657e-01 -3.01523054e-01 -2.99651220e-01 -1.71756986e-05 -5.95024120e-06
 -6.43703971e-06 -4.34160053e-06 -3.29921708e-06 -1.47765012e-06 -1.21944129e-06
 -1.18812807e-06 -8.45533328e-07 -3.69064859e-02 -6.17193860e-03 -5.24763810e-03
 -4.86376489e-03 -2.22946324e-03 -1.47940822e-03 -7.40872533e-04 -4.84270783e-04
 -4.97196549e-04 -2.59548138e-04 -3.73067403e-02 -6.23440708e-03 -5.46468521e-03
 -4.46929812e-03 -1.57101813e-03 -7.08389816e-04 -4.89621601e-04 -4.94827071e-04
 -4.91053601e-04 -2.79928779e-04 -2.44810232e-02 -1.36876689e-02 -5.31501627e-03
 -2.69973366e-03 -7.32399824e-04 -6.93012056e-04 -5.56707452e-04 -5.42360382e-04
 -5.55246849e-04 -5.21566173e-04 -1.07909856e-02 -4.55717883e-03 -4.78652958e-03
 -1.29330220e-03 -1.51245982e-03 -3.71738003e-03 -4.16053345e-03 -8.53652151e-04
 -8.79095244e-04 -7.37481898e-04 -1.59102159e-04 -1.47787354e-04 -1.44678140e-04
 -1.39296633e-04 -1.35592696e-04 -1.14192384e-04 -9.26567509e-06 -7.09631876e-06
 -5.34913898e-06 -4.67301407e-06 -1.48715639e-04 -1.27390423e-04 -8.61181968e-05
 -2.92128211e-05 -2.12746638e-05 -4.47282543e-06 -4.15946029e-06 -3.43485110e-06
 -2.29924942e-06 -1.62241173e-06  0.00000000e+00  0.00000000e+00  0.00000000e+00
  0.00000000e+00  0.00000000e+00  0.00000000e+00
Alpha MO coefficients                      R   N=        6889
  2.27613115e-01  2.98500240e-01  1.09479702e-02 -6.73520606e-03 -1.40776095e-02
 -2.12664129e-03  3.23726301e-07 -9.96438718e-07 -1.14056824e-03 -1.14225151e-07
  3.28919653e-06  2.14258537e-03  7.39828005e-07  6.61831476e-07 -1.00139604e-02
 -1.88753963e-04  1.46921837e-06 -2.04615763e-06 -1.84381726e-06 -4.18422606e-06
  8.72807154e-04  1.99245685e-06 -1.72865625e-06 -1.62339219e-06 -1.31451526e-06
 -2.45937235e-03  1.29331218e-06 -1.11055471e-06  3.09732760e-08 -7.68977884e-08
 -1.86872657e-04 -2.70152742e-08 -4.93008701e-07  4.47710835e-07 -8.55611977e-07
 -5.51154354e-07  1.14776344e-06  3.92158633e-01  5.50163392e-01  2.21488100e-02
 -1.82767016e-02  2.39882273e-02  3.21222218e-03  5.84585962e-07  3.63998134e-07
 -1.54729546e-03  1.15940184e-06 -4.46013232e-07  3.06367396e-03 -9.71048159e-06
  1.05202531e-05 -6.00441267e-03  5.70310993e-04  3.89644001e-06 -2.81706818e-06
 -4.01266730e-07 -6.89055360e-06 -1.77037052e-04 -4.31335510e-06  3.85350906e-06
 -2.31734871e-06 -5.28693262e-06  4.21547768e-04  2.13719690e-06 -1.62948229e-06
 -3.61978498e-07 -2.23390535e-07 -4.21936342e-04  3.50119969e-07 -9.26075971e-08
 -2.15529742e-06 -7.20037607e-07 -1.09099426e-06  2.00747904e-06  2.82905146e-05
 -1.22877316e-04  2.13681662e-04  3.40193872e-07 -2.20905149e-07 -1.37710551e-05
  1.21854979e-07 -3.31287471e-07  1.43381436e-04  4.08101551e-01  5.34756794e-01
  2.09570377e-02 -2.24509138e-02  9.77253449e-03 -2.61066654e-03  2.70940923e-06
 -1.05945704e-06 -5.93845864e-04 -4.88450033e-07  2.79645157e-06 -3.29233633e-03
 -2.44462863e-06  3.33619857e-06  2.91304841e-03  2.69331520e-04  2.23419003e-06
 -2.70018946e-06 -4.32369927e-06 -9.95713474e-06 -9.43375302e-04  1.47599156e-06
 -2.23495809e-06  2.90110352e-09  1.27282040e-06  1.18659952e-03 -4.47271246e-07
  2.86386512e-07 -5.94335500e-07 -5.22323346e-07  4.29482381e-04  1.10725817e-06
 -2.08462624e-06 -8.02704798e-07 -9.01548025e-08 -1.50505553e-06  1.30019658e-06
 -2.18592077e-01 -3.06602878e-01 -1.41111886e-02  1.38537407e-02 -4.68536851e-03
  1.85649747e-03  5.18557885e-06 -6.00748818e-06  2.15686004e-03 -8.46659762e-06
  1.19532234e-05 -3.56011033e-03 -2.28653022e-06  6.95053425e-06 -2.96430541e-03
 -1.06961118e-04 -3.28326428e-06  4.85869464e-06 -2.45017223e-06 -5.51824202e-07
  1.75102104e-03  7.56166411e-07  1.92560785e-06 -3.29981687e-06 -1.69859331e-05
  1.46852592e-03  1.01357518e-06 -1.34314685e-06  1.27004883e-06 -1.20044570e-06
 -6.46003189e-04  1.89998330e-06 -3.16922420e-06  2.78681801e-06  2.24845900e-06
  9.44113486e-07  5.54812095e-07 -7.44435594e-06  4.27521229e-05 -2.32356569e-05
  4.89950500e-07  4.70612945e-07  1.65171070e-05  1.95485475e-07 -2.86709361e-07
 -5.65905123e-05 -4.29779717e-02 -9.32347241e-02  1.45509236e-01  6.64857485e-02
 -2.46086132e-02 -1.47016249e-03 -6.56753400e-05  1.81661501e-05  1.34078919e-01
 -3.42648117e-05 -2.27782066e-05  4.94201795e-02 -2.00553013e-05 -1.40064040e-05
 -9.30921765e-03  1.68624392e-02 -4.14559965e-06 -1.06637320e-06 -8.56215156e-07
 -4.16274913e-06  7.61134208e-03  8.94123635e-06 -1.86640928e-05 -2.92961439e-06
 -6.10793403e-06 -3.59194556e-03 -7.18158955e-07 -2.78264420e-06  5.56940965e-07
 -8.26878476e-07  4.58920919e-03 -1.85853904e-06 -3.89138088e-07  2.90609107e-06
  5.28942754e-06 -2.63105654e-06  8.45862773e-07 -9.92590658e-02 -2.32317517e-01
  3.58853049e-01  4.29134104e-01  1.78439512e-01  1.27947022e-02 -7.51428714e-05
  9.13658055e-06 -1.78307583e-02 -7.54035892e-05  2.27263108e-05  5.28542183e-03
 -4.57339485e-05  3.83943096e-05  2.32587528e-02  7.36284947e-03  3.03513350e-07
  2.46902877e-06 -5.89271695e-06 -1.69729471e-05  9.97917766e-03  7.74800599e-06
 -7.69263093e-06 -1.16487986e-06  3.79824878e-06  5.63471885e-04 -1.02645264e-05
 -9.47117433e-07 -1.53654808e-05  2.33708196e-06 -2.34119488e-03 -3.79104424e-07
 -1.94342581e-06  4.49147782e-06  6.74769705e-06 -4.76212908e-07 -7.71785565e-07
  4.32758217e-04  5.25881481e-04  1.44024404e-03  4.20277466e-06  9.61668975e-07
 -3.18591085e-05  6.51370167e-06  2.28411990e-06  3.55216939e-04 -7.69982464e-02
 -1.72606835e-01  2.88332337e-01  3.28073230e-01  1.06707372e-01  4.98692246e-03
  9.00547800e-04 -9.40791298e-04  1.28030348e-01  7.71027475e-04 -7.92222006e-04
  7.51734563e-02  3.19662348e-04 -3.35196487e-04  3.15984220e-02  1.74534266e-02
  6.53648878e-05 -6.57778065e-05 -8.79826817e-06 -2.72807604e-05  1.39714132e-02
  7.81660370e-05 -7.87558833e-05  9.44492735e-06  1.42986555e-05  5.10366252e-03
  1.20698214e-05 -1.38611394e-05 -1.43072313e-06  4.84360277e-06  6.28334501e-03
  2.80774749e-05 -2.84279262e-05 -8.87556613e-07  2.58583247e-06 -7.75829441e-07
 -5.33780068e-06  2.68391713e-02  6.42274688e-02 -9.74054630e-02 -2.63888237e-01
 -2.40911831e-01 -4.07878115e-02  1.01555202e-03 -1.03971666e-03 -3.54800377e-01
  9.24245251e-04 -9.55133372e-04 -2.54455502e-01  5.02237213e-04 -5.38588251e-04
 -9.21802507e-02  1.57821796e-02 -5.42193308e-05  5.66979779e-05  1.13439131e-05
  3.94637797e-05  1.20606711e-02 -1.07760995e-04  1.12478841e-04 -1.26316414e-05
 -4.27713343e-05  2.08237255e-03  1.43051746e-06  1.08785347e-05  2.99064326e-05
  2.06186478e-05 -1.92378573e-03  1.62305073e-05 -1.69032284e-05  9.48011416e-06
  2.79482017e-05 -4.41859139e-06 -1.41190521e-06 -1.84063991e-03 -3.58205791e-03
 -4.73243705e-03 -2.86047064e-06  2.60155361e-07  5.07414211e-07 -9.70655302e-06
 -2.46104380e-06 -3.61309662e-04  3.72738437e-04  8.33643310e-04 -1.41595024e-03
 -1.68833633e-03 -3.55272954e-04  4.32935882e-05  1.73079044e-01 -2.37915235e-01
 -4.34816641e-04  1.52432126e-01 -2.09521595e-01 -2.68714421e-04  5.60444931e-02
 -7.70218764e-02 -9.40558986e-05 -7.97666346e-05  1.25338391e-02 -1.72267532e-02
 -6.72365669e-06 -8.98013381e-06 -5.81055367e-05  1.57445388e-02 -2.16306865e-02
  2.60492073e-05  4.85045841e-05  5.50940166e-08  2.06090033e-03 -2.82741320e-03
  4.21829103e-06  2.24108083e-05 -3.33251945e-05  5.44612516e-03 -7.48686057e-03
 -7.72563885e-06 -1.26633731e-05 -1.47566556e-04 -4.68889853e-05 -1.44023780e-04
 -3.46084796e-04  5.28364492e-04  1.38393463e-03  9.73738715e-04  3.74483503e-05
  1.89298180e-01 -2.60202404e-01  1.54516159e-03  1.68661669e-01 -2.31841669e-01
  1.06014385e-03  8.47159175e-02 -1.16466293e-01  3.94487247e-04 -7.43694883e-05
 -9.82993997e-03  1.35144570e-02 -1.81654571e-06 -9.13169857e-06 -2.00823250e-05
 -1.82221565e-02  2.50584483e-02  8.68497173e-06  3.15420535e-05 -8.61173238e-06
 -3.24955898e-03  4.48287398e-03  1.41612304e-05  3.72299205e-05  1.10201375e-05
  3.72737275e-03 -5.12156339e-03  1.53064995e-06  5.77585611e-06 -1.74799210e-04
 -5.52331314e-05  8.36057976e-06 -1.09493897e-05  6.46423666e-05 -8.19409190e-06
  4.34223215e-06 -2.57800332e-06  4.30628758e-05 -7.60834892e-05 -5.34475793e-06
 -4.65146425e-05 -1.06876593e-04  1.82024334e-04  2.49980707e-04  1.95142410e-04
  1.00604139e-05 -2.37649671e-01 -1.72890594e-01  1.74945412e-05 -2.09911225e-01
 -1.52709601e-01  1.21604092e-05 -7.70101383e-02 -5.60225628e-02  3.42666194e-05
  5.29477240e-06 -1.73007443e-02 -1.25853118e-02  2.74068559e-06 -3.91198511e-06
  2.18140676e-06 -2.16640370e-02 -1.57572424e-02 -1.78953150e-05  1.37341629e-05
  7.13894023e-06 -2.73703940e-03 -1.98781586e-03 -1.54681971e-05  8.71927537e-06
  6.40324202e-07 -7.51290033e-03 -5.46646161e-03  2.17806204e-06 -1.54998405e-06
  3.69362130e-05 -1.17628541e-04  3.36287766e-05  7.95448710e-05 -1.19143950e-04
 -2.18735238e-04 -2.84136113e-04 -2.66356861e-05 -2.60225016e-01 -1.89312443e-01
 -1.91484113e-04 -2.31915340e-01 -1.68716018e-01 -1.44924463e-04 -1.16215545e-01
 -8.45479056e-02 -5.29254209e-06  7.15907434e-06  1.35315712e-02  9.84562554e-03
  1.70332417e-06  1.82768555e-06  9.05174868e-06  2.49456268e-02  1.81550931e-02
 -8.43918256e-06 -7.21335013e-06 -5.06521941e-06  4.48601252e-03  3.27167004e-03
 -4.83613054e-06 -2.86381192e-06 -1.09930785e-06 -5.09606289e-03 -3.70538335e-03
 -1.97113061e-06  1.64159974e-06  3.30794100e-05 -1.03623415e-04 -1.54846714e-06
 -3.57945973e-06 -3.75127455e-06  5.21787295e-06  7.14589128e-06  9.58784541e-07
 -8.08612022e-05 -5.54511075e-05 -5.92077283e-06 -4.17326584e-02 -9.53658951e-02
  1.58775977e-01  2.88458519e-01  9.20397617e-02  7.62118923e-03  1.00734506e-04
 -6.78014108e-05 -2.68372311e-01  9.77392017e-05 -6.02048436e-05 -2.15011718e-01
  9.42604861e-05 -1.04988920e-04 -5.51104421e-02 -6.66977917e-04 -5.27737300e-06
  5.87930304e-06 -5.66892927e-06 -1.60248300e-05  1.41564651e-02 -1.92405795e-05
  2.92081837e-05  9.35501289e-06  2.30835629e-05  4.19176614e-03 -2.19319830e-05
  1.57644171e-05  9.51225990e-06  4.49897028e-06 -4.93184290e-03  1.41328175e-06
  2.73363230e-07 -3.08981387e-06 -1.09122284e-05  4.18637917e-06  2.53713982e-06
  6.47074495e-03  1.51871802e-02 -2.76805144e-02 -6.35062785e-03  2.99538737e-02
  1.43176796e-02  1.24883322e-05  1.88482424e-05  1.27917862e-01  9.33019418e-06
  2.96002031e-05  9.91418151e-02  1.26182274e-05 -4.38946829e-05  3.96295231e-02
 -6.81411453e-03 -1.15069398e-06 -1.82843329e-06  1.50500506e-07  2.60842716e-06
 -8.90363344e-03  1.23672499e-05 -2.30635340e-05  1.97570356e-05  5.72070464e-05
 -5.73369698e-04 -1.02566972e-06 -2.47397676e-06  2.44963946e-06  3.25213625e-05
  2.61471845e-03  1.89113729e-06 -1.19908530e-06 -3.09199193e-06 -7.56787717e-06
 -1.23406042e-06  1.04479763e-06  1.68045319e-01  3.56402951e-01  2.71762727e-01
  9.48188515e-07  1.99626250e-06  5.30516034e-04  1.51444119e-05 -3.48212199e-06
  1.92931560e-03  4.19352088e-02  9.58781005e-02 -1.60183734e-01 -2.99297854e-01
 -1.10130882e-01  4.60528627e-03 -1.02935462e-04  7.52188818e-05  2.71710084e-01
 -1.18385301e-04  8.26940420e-05  2.13155941e-01 -1.47664939e-05  6.13651161e-05
  4.66689939e-02  1.87874065e-03  3.96616905e-06 -6.06315204e-06  5.87005089e-06
  1.20469087e-05 -1.33014729e-02 -1.05178014e-06 -1.32342699e-06 -1.94567587e-05
 -4.33919730e-05 -4.31436133e-03  1.07894442e-05  6.38420180e-07 -2.07990880e-06
 -2.75889867e-05  4.99861799e-03 -8.09160266e-06  7.60091430e-06  1.84653717e-06
  1.00291148e-05 -4.90874262e-06 -1.79137548e-06 -6.17939398e-03 -1.45191798e-02
  2.67286153e-02  4.35118611e-03 -1.24827036e-02 -1.80595729e-02 -3.37874915e-05
 -4.18472583e-07 -1.36155919e-01 -3.44601335e-05  1.06131102e-05 -1.08576256e-01
 -1.06783365e-05 -1.30097924e-05 -4.55571321e-02  7.01714967e-03  1.65912760e-06
  1.21900902e-06 -4.94768851e-07 -3.18164472e-07  1.01309360e-02 -1.17016690e-05
  1.94452797e-05 -1.32791224e-05 -5.16970513e-05  1.60534554e-03  8.05586998e-06
 -1.03841399e-06 -5.74632561e-06 -1.86349367e-05 -2.80892036e-03 -3.60115599e-06
  5.24685228e-06  3.42600006e-06  7.97137750e-06 -5.12007225e-06 -3.76483264e-06
  1.68420001e-01  3.57003574e-01  2.69106908e-01 -2.68660340e-06 -2.38653349e-06
  4.03685729e-04 -1.51079381e-06  3.77002435e-06  2.91646165e-03 -9.94295056e-06
 -1.05047405e-05 -2.76357363e-04  8.79276752e-04 -3.37788501e-06  1.60600305e-04
 -4.29519072e-01 -3.11966386e-01  2.16744906e-04 -2.39296173e-01 -1.74221450e-01
  1.73085535e-04 -2.67740285e-02 -1.94834726e-02  1.88506844e-04 -5.74514781e-05
  2.58854809e-03  1.81057399e-03  4.43680063e-06  1.02680707e-04 -1.24331202e-04
 -6.99843672e-04 -6.58123205e-04  5.96753939e-05  1.85203901e-04  5.53661164e-05
  1.09101484e-03  7.91691067e-04 -2.95705075e-05 -3.26209584e-05 -3.61987838e-05
 -5.47306636e-03 -4.03235011e-03  1.10225456e-04 -1.26482622e-05  7.93129421e-04
 -2.23796148e-03  1.19911027e-05  1.81856932e-05  1.87025729e-05 -1.37941822e-04
 -5.16317698e-04 -1.40143384e-04  4.59121084e-01  3.33224589e-01  2.98412980e-04
  2.35294863e-01  1.71441530e-01  1.35100775e-04 -5.06189624e-03 -3.59076354e-03
  1.38140146e-04 -8.59546833e-06  1.65776412e-02  1.19700392e-02 -4.08924059e-05
 -7.84955783e-05  1.35397634e-04  2.74052428e-02  1.97113176e-02 -8.07475102e-05
 -8.68457654e-05 -4.41921548e-05  2.77772354e-03  1.97680325e-03  3.16348826e-05
  3.84994273e-05 -1.45718433e-05 -1.84242791e-04 -1.12100629e-04  4.89716155e-05
 -2.57471953e-05 -1.04526809e-03  3.28751091e-03 -3.22511662e-07  4.79057984e-06
  3.47462784e-06 -1.14487890e-05 -5.41671667e-05 -1.44540467e-05 -4.22210590e-06
 -2.21859132e-05 -3.74171806e-05  3.19887840e-04  4.27156187e-04 -2.08327452e-03
 -1.37049503e-03 -1.85617187e-04  6.40649527e-06  3.15609566e-01 -4.34481198e-01
 -3.31285627e-04  1.74622734e-01 -2.40594704e-01 -1.67702878e-03  1.86887718e-02
 -2.58813350e-02 -5.82402122e-04  3.16683919e-04 -1.42453431e-03  1.99482807e-03
  8.43051502e-05  2.63082628e-04  3.38108346e-05  1.38783985e-05 -2.95711680e-04
  2.34568369e-05  9.33714841e-05 -7.03937903e-05 -8.50320313e-04  1.15602142e-03
  4.43882094e-06 -6.22037589e-07  1.17574708e-04  3.85789070e-03 -5.30948368e-03
  1.48442070e-04  1.62285027e-04 -4.48389606e-03 -1.39717516e-03  5.02148620e-05
  7.78842730e-05 -9.79108929e-04  1.65806290e-03  2.22419767e-03  2.01312824e-04
 -3.29518787e-01  4.53463962e-01 -1.32076675e-03 -1.73330816e-01  2.39102090e-01
 -1.34290693e-03  1.16320005e-03 -1.67898539e-03 -1.83322432e-05 -7.60585063e-05
 -1.11932167e-02  1.53708719e-02 -2.21388848e-05  1.72966239e-05  1.22677203e-04
 -1.73502352e-02  2.35625294e-02 -1.30525800e-04 -6.84191036e-05  9.48509851e-05
 -1.67605070e-03  2.23818143e-03 -4.28229517e-05  1.08724067e-05  1.26030072e-04
  3.47428589e-04 -4.66394779e-04  8.03363508e-05  8.33348910e-05  3.77425429e-03
  1.22333862e-03 -2.73371935e-04 -2.83163805e-04  4.82287151e-04 -1.05602571e-05
  4.68385011e-06 -1.64888652e-05 -2.97529238e-06  2.51350783e-05 -1.12478050e-05
 -1.66590541e-01 -1.19648402e-01  8.31235369e-01 -8.44154627e-02  4.33880896e-01
 -4.42896503e-02  9.18321190e-04 -7.37914561e-04  6.09588702e-01 -1.83633324e-04
  5.08391893e-04  3.68225422e-01  5.95772352e-05  2.93293286e-06  2.36869872e-01
  9.42677741e-03 -7.72853341e-05  1.73537484e-04  1.60521902e-04  3.18642001e-04
  6.40361844e-03  3.90091635e-05  2.22712932e-04  8.98521273e-04  2.69656560e-03
  5.85157478e-02  9.68958224e-05 -1.74543609e-05 -3.41177329e-05 -3.41791463e-04
  3.69464485e-02 -1.72373888e-04  2.05858818e-04  1.09361692e-04 -1.48243551e-04
  2.80544822e-04 -2.79416114e-04  1.30599105e-01  1.19906531e-01 -6.58000994e-01
 -7.63984694e-02 -4.90850042e-01 -1.70814963e-02 -1.81639072e-03  1.90240332e-03
  6.37580123e-01  9.76177553e-04 -1.15782440e-03  3.49427785e-01 -4.52290535e-05
 -5.46861729e-04  4.36648245e-02  4.53695102e-02  2.70890358e-04 -3.36037355e-04
  7.64315811e-04  2.88606628e-04  2.18949367e-02  9.87074284e-05 -1.46151496e-04
 -6.51069500e-04 -1.52568308e-03  3.53146358e-02 -7.21419401e-05  2.58902626e-04
 -3.66977456e-04  2.59282462e-04  3.80965993e-02 -1.03717294e-04  2.32072797e-04
 -5.10107588e-04 -7.98704170e-04 -1.28783581e-04 -3.22887314e-04  2.69084056e-03
  6.57502914e-03 -4.05892846e-03 -2.80861657e-04 -2.22315020e-04  2.17477014e-04
 -2.01272333e-04 -9.47385698e-05 -3.36883123e-03  2.24134650e-01 -2.81536913e-04
 -1.12344577e+00  8.26414162e-01 -1.13302824e+00  2.12253183e-01 -1.12469532e-02
  1.46311248e-02  1.29460676e-01  6.99235770e-03 -8.42168282e-03 -3.49783329e-01
  4.17818895e-03 -5.48960863e-03 -4.84662123e-01 -1.63652321e-01 -2.71914514e-03
  4.93111018e-03  1.29640273e-04 -6.17457096e-04 -1.94005774e-01 -6.22065620e-04
  8.32240813e-04  1.07651355e-04 -7.54153364e-04 -1.45323021e-01  1.30873313e-03
 -1.70564319e-03  2.36224752e-04  7.63967369e-04 -3.92882095e-02 -1.26630691e-03
  1.97353644e-03  1.64107765e-05  1.19495580e-03 -3.94089655e-05  1.44656321e-04
 -1.69515919e-01 -2.99399129e-02  7.75070159e-01 -4.80142029e-01  1.15824950e+00
 -1.50738973e-01 -1.18251031e-02  1.85350892e-02  7.36165514e-01  9.27246896e-03
 -1.42142289e-02 -8.73556344e-01 -1.37190749e-04 -2.68432005e-03 -2.81654728e-01
 -1.29363305e-01  8.47570997e-04 -4.59889411e-03  2.95735327e-03  8.45391412e-03
  1.53027651e-03  9.04776265e-04 -4.86039613e-03  6.94767681e-03  1.53152105e-02
 -5.52942767e-02  1.52506566e-03 -5.02119081e-04  4.07535091e-04 -5.48042832e-04
  3.47976501e-02 -2.53460495e-04  6.09149282e-04  3.47155892e-04 -7.81429737e-04
  1.30240929e-04  5.08295891e-04 -1.11056413e-04 -2.65791717e-03  1.39389221e-03
 -2.76588789e-04  2.77878938e-04 -8.59509982e-04 -1.95988904e-04 -1.00716723e-04
  4.52571212e-03  1.35612159e-03  1.70877852e-02  9.01178979e-01 -7.55193546e+00
 -3.35599630e+00  1.44366022e-01 -5.78820676e-02 -1.62770833e-02 -1.04574210e-01
 -3.70130969e-01 -3.62444369e-02 -4.65922913e+00  1.20870118e-01  5.22236036e-02
 -1.69751948e+00 -9.02504648e-01 -4.65544034e-01 -6.50627270e-02  3.36921000e-02
  5.33982347e-03 -1.15724615e+00 -2.56811073e-02 -1.69113517e-02 -1.41306276e-03
  2.01576776e-02 -3.33446216e-01  4.75991923e-02  2.38201142e-02  2.09425012e-03
 -7.10599918e-03 -8.97774940e-01 -5.03888619e-01 -1.16668663e-01  1.22779776e-01
  5.12683132e-02  2.09971137e-01 -3.56386228e-02  1.91568746e-01 -3.93409882e-01
  1.00669437e+00  2.63720116e+00  7.34620279e+00  1.03580778e-01 -2.34903036e-02
 -8.16759218e-03 -6.47737582e-02  5.27369415e-01  1.36791175e-01 -3.36377459e+00
 -1.93527955e-01 -1.15043059e-01 -2.20387682e+00  5.83778170e-01 -1.82525162e-01
 -3.93787578e-02 -5.86897010e-03  1.56951406e-02  4.18857017e-01 -3.22230259e-01
 -4.96471146e-02 -3.80672001e-02 -4.26756321e-02  4.42080412e-01  3.45643718e-02
  2.89631996e-02 -3.10934584e-03  1.00233856e-02 -1.92179251e-01  4.11946512e-01
  5.59215680e-02  1.04332469e-01  4.17329595e-02 -1.27779370e-01  1.68508270e-02
  1.25949740e-02 -9.61513856e-03 -1.77686108e-03 -2.86436031e-03  1.78649388e-03
  5.58773683e-03  2.48649185e-03 -4.62377572e-04 -7.24795256e-04  4.30140450e-02
 -9.63906818e-02  4.94596502e-01 -1.37785491e+00 -7.61267258e+00 -2.62295466e-01
  8.94994722e-02  2.83233955e-02  1.19853870e-01  5.11020115e-01 -3.04295513e-03
 -3.24999399e-01 -1.64841604e-01 -6.08281374e-02 -4.56054798e+00  1.13932791e-01
  6.13027482e-01  1.18650256e-01  3.24434819e-02  2.92380200e-02 -1.22243124e-01
  5.31407460e-02 -1.29930544e-02 -1.15735392e-02 -1.42374865e-02 -1.18439400e+00
 -5.82328392e-02 -4.15492540e-02  4.48181735e-03 -7.81004874e-05 -2.85198052e-01
  6.22962169e-01  2.16861197e-01  1.04324540e-01  5.62904518e-02 -1.58196779e-01
 -2.66367567e-01  2.90481436e-01 -5.82076405e-01  2.42033120e+00 -5.19160577e+00
  1.22736165e+01  7.94567942e-01  4.46841094e-02  4.80569597e-03  3.11600332e-02
 -7.17815568e-01 -1.94366637e-01 -2.22747768e-01  2.58990430e-01  1.93209444e-01
 -2.09368393e+00 -8.77744437e-02  1.32220845e-01  1.55531008e-01 -3.23666192e-02
  2.59437372e-02  1.28009743e-01  5.39052451e-01 -2.39895608e-02  5.67285860e-04
 -3.91872441e-02  3.01884861e-02 -6.69622666e-02 -4.11297138e-02 -9.49054163e-03
  2.07307869e-03  9.13887842e-02 -5.27784116e-01 -1.07273614e-01  1.03771346e-01
  4.65709805e-02  1.09913197e-01  1.66910661e-01  1.27571342e-02 -5.45976838e-02
  8.38392847e-02 -1.18506235e-02 -9.16608262e-04 -2.24791187e-02  2.47936656e-03
  2.14741531e-03  7.08398569e-02  6.30376273e-03 -1.37936632e-02  2.62623848e-01
 -2.36966230e+00 -1.98536886e+00 -1.86172951e-02  6.66515913e-03  5.91312685e-02
 -1.61942543e-02 -1.07699650e-01 -5.72837517e-01 -1.41452331e+00 -5.13443337e-02
  1.88792302e-01 -1.30018749e+00 -5.83671535e-02  6.16661531e-03  4.49204656e-04
 -7.71796411e-01  5.28109260e-02 -4.64863430e-01 -8.27018667e-02 -3.01249783e-01
  1.00421183e+00 -1.10144678e-01 -4.39469290e-01 -6.46204858e-02 -2.38859238e-01
  2.39705553e-01  1.98275105e-01 -8.68910846e-02 -3.66478874e-02 -1.53845734e-01
  2.57176590e-01 -2.01251172e-02  1.90086439e-03 -1.49469324e-03  1.52832908e-03
 -4.48901664e-03 -5.98327334e-02  1.05028693e+00  3.67119320e+00 -7.44324501e-02
 -8.93255528e-03 -4.26562224e-02  1.90097997e-02  7.72743744e-02  3.87247618e-01
 -8.93798633e-01  1.03941681e-01  1.34599440e-01 -9.70949770e-01 -1.30675783e-02
  3.10284186e-03  3.24325101e-02  2.68225536e-01 -1.87644249e-02  2.97880787e-01
 -6.37540906e-02 -3.11773108e-01 -5.49968102e-01  5.19188279e-02  1.94064841e-02
 -4.34184318e-02 -4.62938633e-02 -2.08954762e-01 -9.63498909e-02 -8.26659807e-03
  1.64349078e-02  8.76176027e-02  1.82392069e-01 -1.47336625e-02 -6.39028565e-04
  6.35811593e-05  2.82110520e-03 -2.15043385e-02  3.55723347e-02 -4.11040232e-03
  1.18741255e-03  3.62526963e-02  7.24035905e-03 -8.80344591e-03 -5.74719203e-02
  2.40417778e-04 -1.15723124e-05  1.46215268e-04 -2.39402785e-04 -1.40007671e-03
  1.14550170e-03  3.15528094e-01  2.38578460e-01  4.54639575e-03 -2.68886071e-01
 -2.01718614e-01 -3.17512159e-03 -4.88613190e-02 -3.76945753e-02 -2.84051718e-03
  2.01198531e-03  2.54567508e-01  1.85093481e-01 -1.73912161e-03 -7.47609434e-04
  6.58278470e-04  1.21013829e-01  8.76106548e-02 -1.31006937e-03  7.32791452e-05
  1.48691990e-04 -4.48764428e-03 -4.57407746e-03 -2.36194956e-05 -2.27611582e-04
  2.52458705e-04  8.48708805e-02  6.19430366e-02 -5.29627712e-04  1.05259212e-04
  5.09467069e-04  3.00173542e-04 -2.18894684e-04 -1.12396329e-04  3.86463862e-03
 -8.78495404e-03  8.58451787e-03 -7.89834943e-04  2.74815086e-01  2.05759654e-01
 -3.28441422e-03 -1.80365870e-01 -1.37038207e-01  3.74228604e-03 -2.38623735e-01
 -1.69248677e-01  1.27190993e-03  2.01920921e-03 -2.19935930e-01 -1.59848547e-01
 -6.51655863e-04 -9.65408264e-04  1.27168502e-03 -2.53448142e-01 -1.80286278e-01
 -2.72925947e-03 -8.27282048e-04 -7.53786409e-05  4.18536485e-02  2.91718090e-02
 -1.86338626e-04  5.28144502e-04 -7.01160926e-04  6.55342592e-02  4.80093637e-02
  2.36080217e-04  4.40132275e-05 -8.98322955e-04  2.69577955e-03 -5.92263898e-04
 -6.09058836e-05  4.17912262e-04  8.41506798e-04  4.90603143e-04 -3.45632236e-03
 -1.12163603e-03 -9.99763103e-04 -1.84308305e-03  2.07220690e-02 -2.21455165e-03
 -5.03576767e-02  3.07555509e-01  1.73940768e-02  3.22493004e-02 -2.46941703e-01
  3.40097154e-01  1.89627656e-01  1.75920451e-01 -2.42717810e-01  8.73184963e-03
  4.89554238e-02 -6.68531108e-02  4.83946963e-03  5.78711954e-02 -1.58398018e-01
  2.18367582e-01  1.48530785e-02  4.76230916e-02  6.77316269e-02 -6.39639764e-02
  9.01909801e-02  1.95555682e-02  6.19232257e-02 -8.82130408e-04  7.40682074e-03
 -1.08574035e-02 -6.74387799e-04 -1.85020064e-03  1.82448580e-02 -5.98769622e-02
  8.17429032e-02  1.00425772e-02  2.77719518e-02  7.16943253e-04 -2.13150104e-04
 -6.24631039e-03 -4.41663585e-03  1.03185625e-01 -3.04674387e-01 -4.11196950e-02
 -2.82654059e-02 -2.56365934e-01  3.47817694e-01 -6.41936812e-02  1.73707654e-01
 -2.37410361e-01  2.30128943e-01  1.65987282e-01 -2.24492076e-01  5.87204357e-02
  3.71146302e-02  1.41673172e-01 -1.93384624e-01  1.81675140e-02  5.56533429e-02
 -3.82514076e-02  1.59264228e-01 -2.14522143e-01  3.50816125e-02  1.11882315e-01
 -3.48100104e-03 -2.53023380e-02  3.48179225e-02  6.15175693e-04  2.80712623e-03
  5.80200657e-03 -4.36639567e-02  5.95889049e-02 -8.27078174e-03 -1.96972085e-02
  1.19439103e-03 -1.78117929e-03 -7.32278162e-03 -4.83211517e-03  9.06115037e-03
 -2.39653576e-03  1.54779095e-03 -2.42460777e-04 -2.77992449e-04 -4.33827538e-04
  3.85423236e-04  1.97471908e-01  3.44839698e-02 -1.08280116e+00  1.59988831e+00
  1.37565327e+00  1.96864106e-01 -8.24085910e-03  1.07889836e-02  1.06834425e-01
  7.40255986e-03 -8.43070976e-03  2.42244621e-01  2.56800085e-03 -3.46013370e-03
  8.84373413e-01 -1.23849710e-01 -2.24949562e-04  7.32276203e-04  3.76589498e-04
  1.23514149e-03 -1.71547373e-02  2.06297265e-03 -1.94937833e-03  8.57966785e-04
  4.78093533e-03  2.21012433e-01  1.04627189e-03 -1.15010380e-03 -5.04017491e-06
 -5.86242494e-04 -3.37028559e-02 -9.28113426e-04  1.07091154e-03  2.02607542e-03
  4.58463688e-03 -3.03704496e-05  5.94696984e-04  2.45570885e-01  1.13640218e-01
 -1.43350515e+00  1.29312253e+00 -2.12434574e+00 -2.89250869e-01 -5.77144138e-03
  8.59131869e-03 -2.64743184e-01  4.06243024e-03 -5.56348004e-03  1.56588932e-01
 -2.94664118e-03  1.18133974e-03  7.64895131e-01 -1.36029148e-01  2.58159043e-03
 -3.00002403e-03  9.22041742e-04  1.22278990e-04 -1.63451576e-01  9.92607590e-04
 -2.43751753e-03  1.57012073e-03  8.51852621e-03 -9.62816438e-02  9.98898694e-04
 -8.74941370e-04 -6.77399603e-04  1.11292387e-03  3.13522324e-02  2.10605835e-04
 -2.61399227e-04 -2.74238237e-03 -5.28496251e-03 -6.12141216e-04  1.19283744e-03
 -3.74499444e-03  8.53096644e-03 -1.83981291e-02  4.20349793e-04  4.87544034e-04
  1.28660334e-03  2.22869441e-04  1.17079718e-04 -1.31721512e-02 -4.16433635e-01
  2.57074219e-01  1.26581335e+00 -6.50751847e-01  1.66541064e+00  1.40665058e-01
 -6.21082334e-03  1.44320672e-03  8.00631875e-01  7.22337071e-03 -4.55775059e-03
 -1.21001891e-01 -6.25438747e-03  5.11416273e-03  9.66831758e-01  3.90550029e-01
 -7.51341970e-03  6.08702565e-03 -6.72815073e-03 -1.69091343e-02  2.88761494e-01
 -9.45327023e-04 -2.49599927e-03 -6.94358457e-03 -1.45212232e-02  2.15340197e-01
 -2.79485279e-03  2.51373803e-03  8.50703591e-04  1.37120878e-03  1.14636164e-01
 -2.55258242e-03  4.44118935e-03  6.21689932e-04 -2.12286520e-04 -6.82989684e-03
  4.15712797e-03  1.06282893e-01 -4.93900680e-02 -7.41204139e-02 -3.91426483e-01
 -1.39955054e+00 -5.18103521e-01  1.32890547e-02 -9.75346206e-03  2.32942399e-01
 -1.64588131e-02  1.33737680e-02  4.15608233e-01  1.13030300e-02 -9.68217880e-03
  3.43784662e-01 -5.23368810e-01 -1.67266198e-03 -1.57505189e-03  7.02619444e-03
  1.33838669e-02 -8.52771544e-01 -4.38023863e-03 -6.88638030e-04  9.13047419e-03
  1.84992549e-02  1.52092114e-01 -2.86732296e-03  2.68304116e-03 -2.16172858e-04
  5.51838890e-04  6.69420392e-02 -3.32882979e-03  2.74120918e-03 -1.90136348e-04
  2.34805440e-03  1.75054892e-03  1.24054094e-03 -1.43045873e-02  5.17434667e-03
 -3.88897379e-03  3.79532454e-03  1.09490916e-04  3.96580366e-03  1.66816206e-03
  1.61786250e-04 -1.03734981e-02 -3.71111863e-02  9.30540787e-02 -1.17408939e-01
 -1.97376098e+00  5.08939702e+00  2.79130123e-01 -2.65840673e-02  1.56494735e-02
 -1.78259019e-01  4.60250850e-01 -2.72502780e-01 -1.61236147e+00  1.67053026e-01
 -9.60350244e-02  3.19755716e+00 -4.75308427e-01  3.12738260e-01 -1.81911289e-01
  6.37691805e-02  1.57482937e-02 -3.31534338e-01 -5.82742828e-02  2.31069055e-02
 -2.37752580e-02 -1.57995781e-02  8.80494865e-01  1.43466053e-01 -8.39828720e-02
 -2.66706020e-03  5.20715222e-03 -1.13210546e-01 -4.37314898e-02  3.56454096e-02
  1.67655723e-01  4.16534669e-02 -1.75495772e-01 -5.89401607e-01 -1.78099459e-01
  3.51569764e-01 -1.71983623e+00  5.56307929e+00 -7.44044673e+00 -5.92820552e-01
 -3.12111892e-02  1.57677299e-02 -4.90597314e-02  1.15948408e-01 -6.68093966e-02
 -1.19050131e+00 -5.86843960e-01  3.46468398e-01  7.77841139e-01  2.83904204e-01
 -1.53995095e-01  1.01206079e-01  3.49648090e-02 -3.36961248e-02  1.31723886e-01
  3.67447704e-01 -2.27785481e-01 -9.65031443e-02  1.79953183e-02  1.77490191e-01
  1.34692604e-01 -7.31042165e-02  1.14916082e-02 -8.38148205e-03 -1.86641933e-01
 -2.46970841e-01  1.50814768e-01  1.09112672e-01  2.15733952e-02  1.08730775e-01
  3.79871833e-01 -4.44060689e-03  4.12955663e-02 -7.20109272e-02 -1.35306027e-02
 -2.76429329e-03  4.07778018e-03  8.46827752e-03 -6.29454424e-03 -5.74686084e-02
 -1.05458049e-02  2.86224392e-02  2.54499371e-02 -1.18698691e+00 -8.68040043e-02
  8.16952778e-02  2.53178966e-02  3.38553670e-02 -5.35141531e-02 -9.20308751e-02
  5.66617870e-02 -8.66336515e-01 -7.92835794e-02 -7.18282519e-02  5.90469806e-02
 -1.96412378e-01 -2.34007169e-02  1.12738009e-01 -2.07756840e-01 -2.27085142e-01
 -2.00489410e-01  3.38371411e-02  4.01748943e-02  3.77317461e-02  7.57575179e-02
  3.46161184e-02 -5.56120810e-02 -3.97671437e-02  1.48456432e-02  3.71095422e-03
 -1.62411154e-01  1.08701608e-01  1.94812956e-01 -7.17601235e-01 -6.69829277e-01
  5.10511583e-02 -1.84296329e-01  1.35685070e-02 -2.97726123e-02 -7.47504754e-03
  9.46160042e-01  3.74766712e-01 -5.93571410e-02  1.80253300e-02  2.07909210e-02
 -1.08553009e-02 -1.49451197e-01 -2.41412746e-01 -6.68884093e-01  2.41883875e-01
  1.82722676e-01 -2.05627420e-01  1.07906118e-01  7.58552869e-02  7.67861762e-02
 -7.71252802e-02 -5.13841826e-02  1.06937151e-01 -4.92519619e-02  8.58342567e-02
  3.39985695e-01  2.87124883e-01  7.18667573e-02 -6.31918590e-02 -5.11908194e-02
 -2.87728740e-02 -1.29719151e-02 -7.16027867e-02  1.16264942e-02 -1.06240018e-01
 -5.18675995e-01 -4.86032669e-01 -3.19100161e-02  1.19891426e-01 -2.11704451e-03
  8.50361740e-03 -1.14456867e-02  3.37950563e-03 -4.99181256e-03  3.95348046e-03
 -1.08310968e-03 -2.05977561e-03 -5.13239038e-03 -2.68518510e-02  7.04548074e-02
  1.31149590e-01 -7.23278009e+00 -4.92137652e+00  1.23663348e+00 -8.63168333e-02
 -3.09555416e-02 -6.31727670e-02  4.16045636e-01 -1.36080963e-01 -3.99593561e+00
  3.20281064e-01 -3.31208965e-01 -5.24280962e-01 -2.70889705e-01 -2.06011024e-02
 -3.09764871e-03  1.25581586e-01 -4.57098457e-01 -7.56939293e-01  5.39421036e-02
 -2.91718244e-01 -2.68392100e-01  5.85936049e-01  1.94591247e-01  2.54363808e-01
 -1.53833146e-01  3.91661820e-01  3.94620591e-01 -5.17416063e-02  5.75205599e-03
 -1.13137320e-01 -1.54956604e-02  1.68203960e-01 -1.79450368e-03  8.11016014e-03
  8.79900886e-03 -1.81372407e-02 -2.60081140e-01  2.25261593e+00  7.79765038e+00
 -1.54725091e-01  2.28063736e-02  2.01395434e-02  8.76341242e-02 -7.36200434e-02
  7.43920768e-02 -2.10732224e+00 -4.86985411e-01  5.15379487e-01 -4.74906340e+00
 -7.09747905e-02  6.53156293e-02  6.48368767e-02  2.01239866e-03  8.79715795e-02
  9.98030321e-01 -1.42664922e-01 -3.43264772e-01  1.82278147e-02 -1.63952028e-01
  1.22023741e+00  6.41836417e-01  1.44421604e-01 -6.20753072e-02 -4.88879493e-01
 -1.53179406e-01 -4.65639764e-02  4.91918292e-02 -3.11097347e-02  1.32226333e-01
  2.26106255e-03  1.42684046e-03  1.70684774e-01 -3.13387991e-01  1.68937764e-01
 -1.27164078e-01 -9.76804209e-02 -2.95633058e-02  2.68622049e-01  2.00736692e-01
  2.56569252e-02  1.17713486e-01 -1.07048931e-02 -3.61588643e-01  1.47540363e+00
  1.70406392e-02  1.71439428e-01 -1.92358334e-02  2.11376543e-02  7.83158703e-01
  1.57562599e-02 -1.27596561e-02  8.37011472e-02  7.51733084e-03 -7.50938976e-03
  2.36247379e-02  2.02786090e-01 -3.79589543e-05 -3.92269726e-03 -3.11886691e-02
 -1.49380327e-01  2.71598082e-01  9.21883467e-04 -4.93783114e-03 -4.24033998e-02
 -1.92413487e-01 -7.27067241e-03  2.97563220e-03 -2.93648424e-03  1.69749140e-03
  7.36939778e-03  6.46441590e-02 -1.22158588e-03 -2.70302322e-04 -2.40458464e-02
 -1.00700434e-01 -6.72685871e-04  4.50019512e-04 -2.71471654e-02 -1.50849486e-02
  4.39012574e-01 -1.33718469e+00 -1.16807662e-01 -1.64032938e-01 -1.47037608e-02
  1.84555358e-02 -1.65167529e-01  1.28633679e-02 -1.36695182e-02  8.58501983e-01
 -9.24546956e-03  8.41897059e-03  2.52548969e-01  1.09201782e-01  3.43721164e-05
  2.69403048e-03 -3.91866289e-02 -1.74233145e-01 -2.09061804e-01 -8.80749333e-04
  6.15362664e-03 -8.26311701e-02 -3.52974721e-01 -2.11678364e-02  4.58754145e-03
 -4.05033445e-03 -1.43348951e-03 -8.81326225e-03  2.82041419e-02  7.56858288e-04
 -1.40509560e-03  1.85435571e-02  7.65525601e-02  7.11401770e-04 -8.63307383e-04
 -9.65309743e-03 -8.54416890e-03  6.98207163e-03  8.96583894e-04 -3.02283410e-03
  7.56220511e-04  4.13789622e-04 -1.29569176e-03  1.64256565e-03  9.90862300e-02
 -9.41366029e-03 -2.89982036e-01  1.29168007e+00 -2.95720526e-02  1.40887335e-01
  6.56866573e-02 -9.17791697e-02  6.99242404e-01 -4.64949273e-02  6.59514584e-02
  7.58055325e-02 -1.37732991e-02  1.86189592e-02 -1.66849946e-02  1.77033120e-01
  4.92827648e-02 -7.07945349e-02  4.78961744e-02  1.46843383e-01  2.33647953e-01
  2.14146620e-02 -3.06387854e-02  5.80184387e-02  1.82183256e-01 -1.56530064e-02
 -1.86070799e-03  3.18326689e-03 -1.95466171e-03 -6.04129420e-03  6.12745873e-02
  1.81046301e-02 -2.57437199e-02  3.07254218e-02  9.22521387e-02 -2.18756092e-03
  1.07285463e-03 -2.93349753e-02 -1.55330007e-02  4.31035636e-01 -1.24441074e+00
 -3.06971816e-02 -1.29225077e-01  7.33990431e-02 -1.02901778e-01 -1.69651108e-01
 -5.06641998e-02  7.46826243e-02  7.92637609e-01 -5.21793896e-02  6.85116881e-02
  2.15909981e-01  1.04070380e-01 -4.46852579e-02  6.24704156e-02  5.90514972e-02
  1.78450682e-01 -1.83249389e-01 -5.07692134e-02  6.97407935e-02  1.16051105e-01
  3.59483739e-01 -2.00126516e-02  8.09832472e-03 -1.14596030e-02  2.28965312e-03
  8.57715925e-03  2.14211107e-02  1.31736155e-02 -1.90556319e-02 -2.27026553e-02
 -6.71716830e-02 -6.13962984e-04 -4.68403828e-04 -6.17786424e-03 -6.59135758e-03
  3.55271178e-03 -3.89182350e-04  2.07109551e-03  7.56556288e-04 -1.08396035e-04
  1.19893503e-03  1.99919118e-03 -1.44810852e-02  5.22223629e-03  4.48110838e-02
 -1.20079881e-01 -1.17993668e-02 -1.21118276e-02 -4.20495313e-01  5.85086651e-01
 -3.11196385e-02  1.73571867e-01 -2.41409686e-01 -1.99269864e-02  1.49967824e-01
 -2.07500943e-01 -1.31768203e-02 -6.93335680e-03  1.01716019e-01 -1.45381759e-01
  3.53446927e-03  1.46093973e-03 -1.40403356e-02  7.44485622e-02 -1.04823320e-01
  3.81509492e-03  1.88790321e-03 -1.79313099e-03  6.51547502e-02 -9.01920098e-02
 -3.09556357e-05 -1.56059458e-04 -2.33432568e-03  1.34409623e-02 -1.97875435e-02
  1.58514659e-03  7.84457399e-04  9.59889303e-04  7.64765401e-04 -4.30050287e-05
  6.38043044e-04 -1.13224553e-02  5.38523454e-02  4.79205357e-02  1.21479886e-02
 -3.93406297e-01  5.43867917e-01  2.06233730e-03  3.35492652e-01 -4.62132293e-01
 -3.91412283e-02 -1.84751797e-01  2.57532473e-01 -2.33459243e-02 -6.83971108e-03
 -1.54131196e-01  2.18882457e-01  4.47959789e-03 -2.70093056e-04  9.29516685e-03
 -2.33981193e-01  3.28918724e-01  8.45039806e-03  1.54257988e-03  3.92774350e-03
  9.14657900e-02 -1.27353652e-01  3.03275905e-04  3.96567384e-04 -2.96497592e-03
  2.56628327e-02 -3.67478235e-02 -8.60674620e-04 -7.29570927e-04 -4.02013022e-04
  7.23808997e-04  2.51641765e-03  3.04294874e-04 -1.92419912e-03  1.67417682e-04
 -2.84510110e-04 -3.43232475e-04  2.48761738e-03 -3.55511893e-03 -2.24708538e-04
 -2.59051606e-01  1.65483470e-01  8.38351478e-01  4.49568691e+00 -1.68795671e-01
 -8.50245956e-02  7.38169253e-03 -1.26628556e-02  7.55213795e-01 -1.54806746e-02
  2.13723481e-02  2.99288691e+00  3.38906340e-03 -1.14551528e-03 -2.75436705e-01
 -2.59925288e-01 -3.94635565e-03  3.30319733e-03  5.43989106e-03  7.87979358e-03
  6.60843307e-01 -4.97611373e-03  3.86663200e-03  3.10261732e-03  8.55407750e-03
 -1.39395052e-01  1.86245979e-03 -4.37249024e-04 -5.06744162e-04 -1.76940061e-03
 -1.13803043e-01  3.06890397e-04  1.17095034e-03 -2.98087616e-04  1.89133144e-03
  3.18712249e-03 -3.66749445e-03 -3.99512479e-01  2.17571276e-01  1.93477646e+00
 -5.72608873e+00 -4.89591375e-01  2.64224026e-03 -1.20195958e-02  8.75163154e-03
 -1.01843544e+00  2.25772637e-02 -1.72429000e-02  3.74403870e+00 -6.02298252e-03
 -1.26799326e-03  7.68240550e-01 -1.05371331e-01  1.77455340e-03 -6.92959732e-03
  1.84078359e-03 -2.20075535e-02 -1.22520263e+00 -4.60598382e-03  5.00695052e-03
 -8.27948664e-03 -1.01240366e-02 -1.82303686e-01 -4.53808024e-04  3.52754541e-03
 -1.20075472e-03  2.65004803e-03  1.81673922e-01 -4.27702940e-03  7.87838148e-03
 -2.50824684e-03 -4.13074702e-03 -3.11974721e-03 -2.31828202e-03  5.75652703e-03
 -8.53170615e-03  1.36135922e-02 -3.26782592e-03 -2.56084657e-03 -3.57408318e-03
 -1.28160294e-03 -6.48633897e-04  1.15525734e-02 -2.98970758e-02  7.57024110e-02
 -2.97141531e-02 -2.07592864e+00  2.83604873e+00  2.23655827e-01  4.90247385e-02
  1.12130522e-01 -1.41225689e-01  3.53326724e-01  3.64129930e-01 -1.58508564e+00
 -4.73595396e-02 -2.90153172e-01  1.87915483e+00 -4.29329927e-01  4.42758792e-01
  5.84180634e-01  4.61972939e-02  4.89784255e-02 -3.37948982e-01 -6.06305240e-03
  7.85541183e-02 -3.25270456e-02 -3.25035541e-02  5.36664591e-01 -2.72510348e-03
 -1.46865684e-01  3.90350692e-04  1.83735152e-03 -2.15859876e-01  4.08007897e-01
  7.96142921e-01  6.32231073e-02  9.47280535e-02  3.56025972e-01  2.76047523e-01
 -8.92838270e-02  1.73709013e-01 -9.63277438e-01  3.88042495e+00 -3.95917435e+00
 -3.68785120e-01  4.51964263e-03  7.09037622e-02 -5.27072793e-02 -3.90936328e-01
 -9.26074371e-01 -1.16499065e+00  4.35532535e-02  6.29328715e-01  2.44947972e-01
  2.60511178e-01  1.21332419e-01  3.02522889e-01  8.69456376e-03 -1.46225830e-02
  1.43451287e-01  3.22530335e-01  3.97216244e-01 -2.85672910e-02 -1.61382040e-02
  1.67731549e-01 -1.54608454e-02 -1.47134283e-01  6.24604052e-03 -4.58908495e-03
 -1.67684423e-01 -3.77685495e-01 -5.14345460e-01  4.38545598e-02  6.07086089e-02
 -2.28328812e-01 -1.67115868e-01  5.49619434e-04  2.66728695e-02 -5.04960638e-02
  9.51893030e-03  2.99802355e-03  1.02059575e-02  5.56954027e-03 -1.87282526e-03
 -3.14295663e-02 -5.37238705e-02  1.19180161e-01 -5.02788310e-01  1.13302444e+00
  5.36419691e-02  3.17611772e-01  1.23105998e-01  8.40638663e-02 -8.55106309e-03
 -8.54390280e-01 -1.06341325e+00 -2.43893234e-01 -4.54021462e-01 -3.48145983e-01
  4.31865873e-01 -3.62709046e-02 -3.29024312e-01 -5.91524652e-01  2.21784647e-02
  6.32134710e-02 -1.55487127e-01  3.01432004e-02  2.63864662e-02 -3.23073874e-03
 -6.17670797e-02  6.40675782e-02 -3.42351997e-01 -3.04777693e-01  1.63993736e-02
  1.18266987e-02 -5.22968501e-02  2.99638262e-01  4.32471951e-02  9.25044829e-02
  6.97240349e-02  3.78263869e-02 -2.92765923e-02 -1.73758796e-02  3.43319892e-02
 -1.77287774e-01  7.84177321e-01 -1.18678069e+00 -3.56342694e-01  1.00196689e-01
  7.41565070e-02 -2.80142329e-03 -5.12124843e-01 -1.97491991e-01 -2.35861672e-01
  1.44506861e+00  1.27995215e+00  6.60012437e-01  5.10978775e-02  3.69423800e-01
  3.05536101e-01 -5.96747330e-03 -6.31379561e-03 -2.23314751e-02 -5.71778626e-01
 -7.78739761e-01 -1.66103061e-02 -7.80020986e-03 -1.40465791e-01 -3.53230057e-01
 -3.31319046e-01 -3.53641332e-02 -1.72657509e-03 -6.24827779e-02  2.69571566e-01
  4.95230177e-01  6.70608641e-02  4.73793205e-02 -1.86726252e-02  2.70007468e-02
  5.03029764e-03 -5.11155692e-03 -3.61038924e-03  4.14229203e-04 -2.11451752e-03
 -2.52592498e-03 -5.40960156e-03 -2.61968038e-03 -1.83876144e-03 -1.17722376e-02
  3.33706601e-02 -6.27808093e-01  2.26784611e+00  3.86073783e+00  1.40618989e+00
 -7.89426584e-02 -8.92909631e-02 -4.10642573e-02  1.08608742e+00  8.79156108e-01
  2.12876612e+00  1.97188179e-01  2.36923063e-01  4.34671763e+00 -1.08310782e-01
 -8.91042503e-03 -2.42173110e-02 -1.37951088e-01  3.59899555e-01  1.50214684e+00
  7.72954215e-01  5.38337118e-01  1.57213380e-01 -4.56922053e-01  1.31445359e+00
  3.85044525e-01  2.55065965e-01 -4.30064035e-02 -1.11224714e-01  3.02906702e-01
  3.55149077e-01  2.28163049e-01  6.43823377e-02 -1.62191670e-01 -6.38255851e-04
  5.71003539e-03  2.47831004e-03 -4.37729310e-05 -5.03414030e-03 -2.53390706e+00
 -6.26920281e+00 -7.44968420e-01  6.49539100e-02  5.59934535e-02  1.12634929e-02
 -7.35626093e-01 -5.26375806e-01  1.62005640e+00 -7.10756447e-01 -5.79163932e-01
 -1.51763233e-01 -5.12051610e-02 -4.64540264e-02  1.20622554e-02  1.30642335e-01
 -2.08527587e-01 -1.47490587e-01  6.51320207e-01  3.23747398e-01 -2.91542619e-01
  4.54219844e-01  9.11580324e-01  3.31784254e-01  5.46759427e-01  2.85397132e-01
 -1.46782576e-01 -1.03171027e-01 -1.99084463e-01 -1.50660980e-01  2.91251680e-02
 -9.78532591e-02  5.62497836e-04 -3.87964560e-04 -9.80635374e-02  2.37177123e-01
 -2.49490212e-01 -1.18958216e-01  1.09440131e-02  5.44506330e-02  2.39010245e-01
 -1.69272797e-02 -1.92176437e-01  6.68830728e-03 -6.16070151e-04 -1.93434048e-02
  6.88258002e-02 -2.55130885e-02  9.29390190e-03 -1.12433474e-02  5.30715889e-03
  4.82723616e-02  7.01196907e-03 -3.30847409e-03 -7.65832579e-03  2.16108413e-03
 -2.30169104e-03 -1.55194053e-02  1.10266262e-02  1.40616815e-03 -4.27070238e-03
 -2.51692240e-01  6.99111532e-02  1.20752674e-02  2.84211072e-03 -3.33322884e-03
 -2.95529866e-01  8.19747660e-02 -5.04681803e-03  7.26214187e-04 -8.35452218e-04
  1.00317976e-02 -3.30024757e-03  3.36351389e-03 -2.68526608e-04 -7.32755360e-04
 -1.34992694e-01  3.84906159e-02  1.67866157e-04 -1.42332154e-04 -3.04196186e-03
 -1.31850167e-03  3.78427411e-02 -9.31295138e-02  4.59029700e-02 -8.18487249e-03
 -8.50606523e-03  5.69062383e-03 -6.60147517e-03  4.72437046e-03 -3.28557156e-03
  3.85530754e-02 -1.07771471e-03  3.87748828e-03  8.66392985e-03  4.26323517e-03
 -1.26198832e-03  3.77935154e-03 -2.51174448e-01  6.80351419e-02 -1.04128080e-02
 -3.03305313e-03  1.33903293e-03 -4.83238808e-01  1.34681333e-01 -1.01691815e-03
  1.11700541e-03 -1.98565949e-03 -1.09000363e-02  4.21614366e-03 -7.52389017e-04
  1.37911667e-04 -2.25925032e-03  9.65199374e-02 -2.82640112e-02  3.01553363e-04
 -2.24921346e-04 -2.44525058e-04 -6.44270742e-04  4.05351144e-04  1.69598219e-03
  1.11165080e-04  1.62499642e-03  5.24506964e-04 -3.96517282e-05  9.64123426e-04
  2.21587264e-04  5.76580553e-06 -2.54692541e-03  3.52883945e-03 -5.77982920e-04
  3.57885074e-03 -5.93111642e-01 -4.27551084e-01  6.83660675e-04  2.49612919e-01
  1.84769685e-01 -1.47927555e-03  2.09377308e-01  1.52380013e-01  3.67443046e-03
  1.83916731e-03  1.55584448e-01  1.12688104e-01  9.79729903e-04 -2.76103584e-03
  1.59368328e-03  1.50957641e-01  1.08941690e-01  1.36009296e-03 -1.83372407e-03
  1.08902612e-03  8.40001640e-02  6.13695305e-02  2.33932198e-04  8.47928351e-05
 -7.06864781e-04 -9.86302003e-03 -7.45046417e-03 -3.97157472e-04 -5.64917777e-04
  4.86206110e-03 -1.50453714e-02  4.74840232e-04  1.13416962e-04 -2.67489830e-03
  1.93238587e-03 -2.50492679e-03 -3.61405880e-03 -5.95530782e-01 -4.28397089e-01
  6.74551341e-04  4.77479298e-01  3.44486518e-01 -1.19947057e-03 -2.21842038e-01
 -1.65675564e-01  1.07370853e-03 -6.77099259e-05 -1.34527096e-01 -9.33610136e-02
  1.87399512e-03 -7.82527863e-05  1.15078455e-03 -2.80117750e-01 -1.99074574e-01
  1.96578759e-03  6.57047186e-04  5.72380905e-04  1.13896156e-01  8.32170543e-02
 -3.96837055e-04  3.96234296e-04  7.51302821e-04  3.20922549e-02  2.25017782e-02
 -3.04529253e-04  7.95100391e-04  5.17401274e-03 -1.51660557e-02 -6.51941555e-04
 -5.69277530e-05  4.97927428e-04 -3.91106489e-03 -1.96574471e-03 -2.41848597e-03
  1.76389358e-03  1.66257859e-03 -1.35807120e-03  1.16214638e-03 -2.45238522e-04
 -9.47342946e-03 -3.60260183e-05 -2.78840412e-02 -4.37545535e-03 -5.89314648e-01
 -4.35725515e-01 -8.41972551e-03  7.79358168e-01  5.77384483e-01  2.55225783e-03
 -2.40764387e-01 -1.83226120e-01 -1.91258627e-02 -3.96194518e-03 -1.85453706e-01
 -1.38784357e-01  1.44094594e-04 -5.54651198e-03 -1.80474843e-03  1.41589033e-02
  9.47224364e-03 -9.11584358e-04 -5.39299596e-03 -4.43189035e-03 -1.04916290e-01
 -8.02929994e-02  2.25993338e-04  5.65752907e-04 -4.52226652e-04 -3.08877992e-02
 -2.26429610e-02  5.43335345e-04 -9.76081968e-04  1.22065625e-06 -8.49747244e-04
 -1.01596826e-03  5.34144267e-04  1.40096193e-03 -2.68352488e-03  3.40757327e-02
  9.62036547e-03  5.86567718e-01  4.43684664e-01 -3.11894605e-03 -8.85543270e-01
 -6.68338306e-01 -3.21688502e-03  3.43991870e-01  2.64698668e-01 -7.68141224e-03
  3.74363320e-03 -1.57815585e-01 -1.18732957e-01  2.19183491e-03  2.76031943e-03
  8.84426405e-03 -1.75642255e-01 -1.30747664e-01  4.51378347e-04  6.81726306e-03
 -1.07295885e-03 -4.51849050e-03 -5.75288420e-03 -1.69404657e-04 -1.60429934e-04
 -2.09634615e-03 -1.90059491e-02 -1.44354349e-02 -2.36137545e-03  2.27625680e-03
 -1.58856622e-03  8.47803435e-04  8.16135704e-04 -6.68143528e-04  2.52558902e-04
  6.53649883e-04 -7.36338182e-04  2.29548571e-03 -1.64517129e-03 -1.56921139e-03
  1.41756770e-03  2.26394615e-02 -3.01072752e-02  3.20092270e-02  1.24352998e-01
  4.07847068e-02 -3.75909078e-03 -1.37265260e-01 -2.85744802e-01  1.32548645e-02
  4.86914854e-01  7.74739320e-01  8.30874599e-02 -9.53942597e-02  2.03076885e-02
  2.19299839e-02  9.80830335e-03  3.08392017e-01  3.86177281e-01 -7.46962889e-03
 -2.33684061e-02  1.89408718e-02  3.12888768e-01  3.46318327e-01  5.47085618e-04
 -8.42775364e-03  3.35389424e-03 -6.14282324e-02  1.31255488e-02 -2.11904026e-04
  6.82370859e-04 -4.28491905e-03 -4.87382535e-02 -2.59362073e-02 -9.17657151e-03
 -4.18816753e-03  1.00854806e-02 -9.99898299e-03  9.34987221e-03 -1.13916332e-02
  2.67936507e-02 -9.47784950e-02 -1.06643497e-01 -5.40702974e-04  2.39828627e-01
  1.82497109e-01 -1.48916943e-02 -6.41832321e-01 -5.40429354e-01  9.28377135e-02
  1.01716347e-01 -2.70710853e-01  3.07653632e-02 -1.41929507e-03  3.97267824e-01
  5.40166794e-01  2.06707970e-03  2.27699622e-02 -3.18901692e-02  1.36256577e-01
  1.44493542e-01  8.70054062e-03  7.97772127e-03 -7.75177622e-03  3.12353117e-02
  1.50275564e-01  2.75222965e-03 -6.49176022e-04 -3.53328743e-03  1.16601650e-01
  2.44653779e-01  1.62149002e-02  7.73498186e-03  3.29948165e-03 -8.23245481e-03
 -1.25600354e-02 -3.96744975e-04  1.13068075e-02 -2.21929129e-02  2.31105000e-03
  5.73232621e-03 -8.53209382e-03  1.37215792e-03  2.74332140e-04 -6.61908546e-03
  2.14084973e-02  2.22740926e-01 -2.21238920e+00  1.04202377e+00  1.15460895e-01
  6.72932279e-02 -1.30675230e-01 -5.52414918e-02  6.19459816e-01 -4.72655139e-01
 -1.44548253e+00 -1.20876633e-01  2.92719336e-01  7.09214746e-01 -3.23684119e-01
  6.41526335e-01 -6.73046135e-01 -7.83813662e-02  2.56608966e-02 -3.41016083e-01
  5.01980166e-02 -1.02059780e-01  2.65294239e-02 -7.39505282e-03  2.15911376e-01
 -2.09736431e-02  1.39304213e-01  8.07367591e-03 -4.21501334e-04 -2.26726765e-01
  5.72804577e-01 -8.49503548e-01 -2.34956815e-01  1.03331021e-01  1.62303624e-01
  2.05356878e-01 -1.98043985e-02  3.44041627e-02 -3.22849461e-01  2.26020431e+00
 -9.17672635e-01 -2.06669844e-01  3.59459209e-02 -7.68352901e-02 -3.67499914e-02
 -6.47587791e-01  1.00529383e+00 -1.01844738e+00  8.36062958e-02 -5.92186911e-01
 -1.87743629e-01  2.23506694e-01  1.15465541e-01 -2.92170431e-01 -6.46209451e-03
 -4.17285479e-03  8.24877485e-02  5.70237276e-01 -5.17369588e-01  8.81890180e-02
 -3.34644847e-02  1.53314088e-01 -8.25820089e-03  1.49777211e-01 -6.59023694e-03
  8.61988825e-04 -7.94207023e-02 -5.55268421e-01  5.96557071e-01 -1.75526664e-01
  7.10438715e-02 -1.00608363e-01 -1.30636016e-01  1.32325258e-02  2.70021042e-03
 -2.39762626e-02  2.00125797e-03  3.75184814e-03  5.80149902e-03  1.72761664e-04
  7.47122532e-04 -2.11489064e-02  2.25596382e-01 -4.99250778e-01  2.17025374e+00
 -7.70260864e+00  3.92234846e-01 -1.56311671e+00  3.19842119e-02  2.13656157e-03
 -1.97251585e-01 -3.44733847e-01 -3.45389604e-01 -2.13448563e-02 -1.24394852e-01
 -2.45465980e-01 -1.48584381e+00 -1.57837382e-01 -7.67646685e-02 -6.98011750e-02
  7.20014588e-02  5.42271269e-02  6.89415483e-01 -1.47721969e-01 -2.61699596e-01
 -1.00061684e-01 -6.76926940e-02 -7.16902153e-02 -8.58536846e-02 -1.16298699e-01
 -1.91219719e-02  3.67497850e-02  2.02216320e-01 -1.17948560e-02 -9.83596242e-02
 -1.33326919e-02 -7.53607335e-03  2.62678309e-02 -2.20724144e-02 -1.75830993e-02
  4.06722275e-02 -2.19538535e-01 -7.96605196e-01  4.55231171e+00  2.08186470e+00
  1.21450737e-02  1.54149817e-02 -1.56764770e-02  2.70937395e-02  1.04073353e-01
  3.49431141e-01  3.97502254e-01  5.05523765e-01 -4.18638170e+00 -2.16464334e-01
  8.66289805e-02  7.58962060e-02  2.26010989e-03 -2.77482150e-02  6.08962543e-01
 -2.62642199e-01 -3.50439322e-01 -1.26138089e-02  4.81243091e-02  8.88303728e-01
 -8.50788428e-02 -4.22451073e-02  9.79594405e-02 -3.81985608e-02  6.23350862e-02
  9.39279635e-02  1.21665658e-01 -2.01666428e-02 -1.09735224e-02 -1.23549469e-02
  8.02221736e-03  2.48619052e-02 -3.56724793e-02  3.69601348e-02  1.14821531e-02
  1.39633136e-02 -2.80285657e-03 -3.02154650e-02 -2.97689872e-02  1.82846820e-02
 -1.77994538e-02  4.71508946e-02  2.09144882e-01 -5.46639801e+00  7.28979269e-01
  9.88074018e-01 -8.67974561e-02  1.18519211e-01 -4.61280778e-02  8.60174222e-01
 -1.06955757e+00 -3.27096634e+00 -3.41209819e-01  8.31090746e-01  1.76090366e+00
 -2.47678066e-01  5.51449666e-03 -2.86660987e-02  2.54917312e-01  1.41589783e-01
 -6.65869441e-01  5.16799208e-01 -5.21434515e-01 -3.93177851e-01 -2.08728661e-01
  3.13607933e-01  3.41507876e-02 -9.36408649e-02  3.22071903e-01 -6.71385098e-02
 -1.19333290e-01  2.40520237e-01 -3.17824781e-01 -9.00094468e-02 -4.12322371e-02
 -9.85745938e-03  9.58485021e-03 -1.00957593e-03  6.07588702e-03 -4.28435576e-01
  3.18785729e+00  1.17755368e+00 -1.21986065e+00  7.15009216e-02 -1.12590847e-01
  7.62380384e-02 -6.51157180e-01  9.04885095e-01 -1.97160667e+00  4.04628375e-02
 -4.45639314e-01 -1.81066877e+00 -2.58577476e-02 -2.26864226e-02  1.98278060e-02
 -1.62935627e-01  8.44466929e-03  7.19088013e-01  4.27034917e-01 -5.10588119e-01
  3.70812019e-01 -2.07522069e-02  7.76898291e-01  1.98668532e-01 -5.90742443e-02
 -3.62848660e-01  2.27836240e-01 -1.05580407e-01 -1.50041672e-01  1.77161133e-01
 -5.50598222e-02 -4.38410484e-02  2.29623380e-03 -4.58968916e-03 -1.04670981e-01
  1.93974363e-01 -1.45902538e-01 -3.26938374e-02  9.46986541e-02  2.36488320e-01
  6.89361086e-02 -1.91524344e-01 -5.00334273e-01  6.90428280e-04  1.05786096e-03
 -1.17232171e-02 -2.22401894e-02 -7.61310372e-02 -1.41576148e-02 -4.47036073e-01
  5.92553826e-01 -1.55468883e-02  6.27859457e-01 -8.38260162e-01 -3.63970957e-03
 -1.43787908e-01  1.96042029e-01 -6.24805327e-02 -1.66697832e-02 -1.69921695e-01
  2.21649437e-01  9.87165227e-04  1.62094012e-03 -1.54853330e-02 -1.43567278e-02
  9.56001105e-03  1.19504165e-03  1.44368689e-03 -1.50489954e-02 -5.26161787e-02
  7.43324788e-02  4.29733643e-04 -2.64486246e-04  1.80687633e-03 -1.64836220e-02
  2.31040989e-02 -2.45630110e-03  1.97634159e-03  4.51225545e-03  2.57131930e-03
 -4.70092711e-03  2.10893768e-04  2.23937906e-02 -2.20609700e-02  1.21991031e-01
  2.21888927e-02  4.26592417e-01 -5.80785048e-01 -5.56952791e-03 -5.88255004e-01
  8.11902402e-01 -1.53657670e-02  1.35071280e-01 -1.98169444e-01 -1.90815847e-02
  5.65520647e-03 -8.85001067e-02  1.16041778e-01 -2.71654824e-03 -6.38882327e-03
  1.40461199e-02 -1.15832870e-01  1.47187483e-01  1.01366880e-04 -2.63720673e-03
 -4.02483770e-03  1.95128011e-02 -2.22203351e-02 -2.08146459e-04  1.11100915e-03
 -7.18385867e-03 -5.35739470e-04  8.57992834e-05  3.14902721e-03 -2.39416566e-03
 -6.90973836e-03  1.71707506e-03 -7.18870989e-03 -1.74622923e-03  8.67075200e-03
  1.29878302e-03 -4.56856104e-04 -1.27623303e-03  9.62545095e-05  6.83906698e-04
  7.36761125e-04 -1.19455051e-04  1.05246805e-04 -2.16540774e-03 -8.36144921e-02
 -5.87347677e-02 -4.05967316e-03 -7.97812687e-04  8.04356617e-03 -6.76346536e-03
  7.93155624e-03 -1.72149187e-02 -5.53442737e-02 -1.16358664e-03 -1.15111917e-03
 -3.83050753e-02 -3.28925949e-03  6.56473574e-03 -5.28017800e-03  5.13426947e-01
 -1.68949645e-01 -2.05966738e-02  1.13196968e-02 -4.26000351e-03  4.13439510e-01
 -1.37133162e-01 -9.92525254e-03 -1.20514406e-03 -1.63126209e-03 -4.93082240e-02
  1.63011728e-02  2.90102376e-03 -2.74817683e-03 -1.21973790e-03  6.89157080e-02
 -1.35998863e-02 -3.79151410e-04  1.25144584e-03 -1.01540705e-03  1.15418381e-04
 -1.30024514e-03  4.11093260e-02  1.14704244e-01  7.43718009e-03  3.05779038e-03
 -2.27356989e-04  9.63093441e-03 -1.12724532e-02  5.08819884e-03 -5.71367974e-02
 -7.68835943e-04  8.50927273e-03 -2.09726720e-02 -3.45365028e-03  1.05635568e-02
 -3.00812487e-03 -3.65358507e-01  1.17956136e-01  1.52629356e-02  1.62645845e-03
 -4.47761967e-03 -4.38628338e-01  1.40314718e-01  1.62531565e-04 -5.99238249e-04
 -4.09543967e-03  7.34865229e-03 -3.31679102e-03 -1.13818258e-02 -1.42746315e-03
 -4.34510555e-03 -7.82203036e-02  1.49342936e-02 -7.48172237e-05  2.59798128e-03
 -4.71862784e-04 -7.17484882e-04  1.52454268e-03  3.81143961e-03  2.37244427e-03
  2.95977531e-03  9.91841209e-04  6.35514195e-04  1.45594361e-03 -1.11628138e-03
  5.12020998e-03 -3.32134357e-02 -3.16313613e-01 -9.88107042e-02 -2.19697743e-02
 -3.11347452e-01 -2.13613032e-01 -4.47257377e-02  4.61815214e-01  3.08902347e-01
 -1.86918041e-01  2.67642587e-01  1.82580285e-01 -8.23997912e-02 -2.88810308e-02
 -4.34294392e-02 -3.89228258e-02 -1.93368419e-02  2.68516614e-02 -6.30774486e-02
 -2.24212211e-01 -1.44038381e-01 -2.32372118e-02  1.66942859e-02 -1.42359751e-02
  1.72993432e-01  1.16630414e-01  1.55948883e-03 -9.99286465e-04  1.57354219e-02
  2.39582531e-01  1.53841169e-01  6.15432045e-02 -4.48374786e-02 -6.22530888e-03
  3.46873691e-02  2.25913613e-03 -2.19720321e-03 -5.26857543e-02  2.57665679e-01
  2.29721881e-01  3.83301268e-02 -1.77616547e-01 -1.20291124e-01  2.73739791e-02
  3.58482817e-01  2.53416562e-01 -2.04727852e-01 -6.46406509e-01 -4.50606574e-01
 -7.91036347e-02 -3.31161039e-03 -2.41198240e-01 -1.38703504e-01 -3.91750397e-03
  2.27331991e-03  7.46681270e-02  2.84222356e-01  1.57976711e-01 -2.38878899e-02
  1.33994057e-02  7.02799189e-03  2.40428723e-01  1.65962566e-01 -7.26447686e-03
  4.69880135e-03 -3.85405541e-02  5.88562346e-01  3.82304731e-01 -1.11211341e-01
  8.31338401e-02 -1.25266104e-03  5.29076420e-02  1.14086182e-03 -1.18598931e-03
  8.17515133e-04  1.56120453e-01 -7.58921105e-03  4.36353081e-04  4.53192935e-02
  4.27745025e-03  2.39627487e-03  3.42979071e-01 -4.60575622e-01  5.61438128e-01
  6.08880415e-01  5.08553880e-01  4.14513264e-03  3.36842513e-01 -3.09245810e-01
  1.53616134e-01 -7.86754279e-01  6.39552003e-01  5.07024444e-01 -1.11831380e-01
  1.78671715e-01  3.17846909e-01  3.58056037e-02 -3.27416209e-01  2.02872392e-01
  7.99453762e-03  1.15105544e-03  1.32978253e-01 -2.55263353e-01  1.20240847e-01
  1.31264441e-02  4.52608170e-04  6.39178581e-02 -7.85421488e-02  1.18538920e-01
 -2.18682939e-03  6.84269203e-05  7.22561231e-03 -2.85751807e-03  4.00807581e-02
 -1.29414260e-02 -2.40982656e-04  5.06896363e-03  5.43989503e-03  1.72436950e-01
 -2.11130270e-01  2.77695628e-01 -6.47581732e-01 -9.73028262e-01 -7.55625320e-02
 -7.42501512e-02 -3.81216580e-02 -1.07540918e-01  2.60770097e-01  2.34756980e-02
  6.78589562e-01  5.32121604e-01 -6.36180747e-01  2.45906741e-01 -4.01275977e-02
 -5.33888570e-01  3.46716858e-01 -2.93925281e-02 -2.72957504e-03 -2.77953690e-01
 -6.35294847e-02  4.10094247e-02  1.39417674e-02  7.29913824e-04 -2.02227477e-02
 -2.09620151e-01  2.22898303e-01  6.88468140e-03 -4.27628204e-04 -3.34714533e-03
 -2.75696077e-01  2.73109700e-01  2.98583962e-02  4.70467781e-04  1.23570877e-03
  3.38299225e-03 -3.87370955e-02  3.47257785e-03  2.94298981e-02 -5.37521216e-03
  8.67788726e-03 -9.43785903e-03 -6.11899192e-03  8.20662586e-03 -4.16092707e-03
  4.58029342e-03 -1.09598414e-02  7.51594505e-03  3.93782263e-01  2.28905558e-01
 -1.55747644e-02  1.21848708e-02 -2.53641108e-02  1.42219749e-02  1.79503149e-01
 -1.40954806e-01  2.92372199e-01 -1.91844160e-02  5.29783380e-02  8.12185972e-02
  3.83663855e-02  1.52395476e-01 -1.69875338e-01  2.01236262e-01 -2.58783509e-01
  8.62993364e-02  2.79546152e-02 -1.10015259e-02 -4.19125062e-02  8.91002536e-02
  9.52929547e-03  3.51946060e-03  1.39037294e-02 -1.82292079e-02  1.33677142e-02
  4.22389652e-02  1.18424149e-01 -1.73802972e-01  6.50576652e-01 -7.58043769e-01
  8.61732582e-02  1.18894416e-01 -3.75652794e-03  8.21641120e-03  5.28988940e-04
 -2.75852850e-01 -3.41768770e-01 -3.17481663e-02  7.15931593e-03 -1.33466365e-02
  1.59217673e-03 -1.42755307e-01  2.00446806e-01  2.04849567e-01 -2.60851513e-02
 -7.74728876e-02  1.47354658e-01 -1.01716231e-02  7.45258363e-03 -4.09890821e-02
  6.71588440e-02 -5.56400291e-02 -6.14656530e-02  1.62292734e-01 -1.46368550e-01
 -3.04581323e-01  3.21879993e-01 -2.19964489e-02  5.28858141e-03  2.20518019e-02
  2.68640927e-02 -2.31804988e-02  1.84946452e-02 -1.37125113e-01  1.43433517e-01
  4.77517484e-01 -5.49163244e-01 -5.43226593e-02 -7.70273136e-02 -2.12568422e-03
  6.76386172e-03 -5.50049264e-03  8.76525997e-03 -1.23623301e-03  6.09991528e-03
 -1.32747688e-03 -3.21405395e-03 -2.68773541e-03 -4.32830735e-02  1.03851977e-01
  8.74445432e-02 -6.39745728e+00 -6.58034924e+00  1.18380240e-01  3.06811873e-02
 -1.17094794e-02 -3.54773175e-02 -1.79091649e+00 -3.58088168e-01 -4.66040571e+00
 -1.15799508e-01 -1.58447512e-01 -2.71345197e+00 -1.97523864e-01  2.91432030e-02
  4.19747675e-02  1.08001081e-01  4.89201889e-01 -1.47093680e+00 -1.83841300e+00
 -4.95537908e-01 -1.72652336e-01 -7.37990359e-01 -6.05997526e-01 -2.77194029e-02
 -1.51122996e-03  1.46224678e-01  3.33742896e-01 -2.34737466e-01 -8.23412711e-01
 -2.35747189e-01 -3.93063667e-02 -2.08816612e-01  2.87296854e-03  2.64886201e-03
  1.10177213e-02 -2.34778214e-02 -2.79846231e-01  3.77417532e+00  8.78303559e+00
  1.10760112e+00 -1.09165093e-01 -2.51766797e-02  7.53167644e-02  1.61482437e+00
  4.05077539e-01 -2.76179916e+00  7.34682558e-01  2.36955069e-01 -3.61557672e+00
 -5.23039138e-02  1.32726424e-01  1.68362356e-02 -6.48485846e-02 -2.45431202e-01
  1.01579379e+00 -1.57854403e+00 -3.77211849e-01  1.48421500e-01  5.64600612e-01
  2.95341548e-01 -7.95623423e-02 -1.77336759e-02 -1.41169982e-01 -3.33360553e-01
 -9.04785834e-02  4.12307341e-01  7.77705839e-02 -2.35205249e-02 -1.46187017e-01
  2.22943833e-03 -2.31967596e-03  1.71263063e-01 -3.50772675e-01  2.67544311e-01
 -2.61090220e-02 -4.75661518e-02 -8.57070286e-02  3.54733485e-02  9.41096328e-02
  1.85584033e-01  1.35382665e-02 -3.33088898e-02 -8.38612263e-01  9.55210518e+00
 -1.72284785e+00 -3.21784438e-01 -1.45477244e-01  6.40502557e-02  1.21341604e-02
  1.29463954e+00 -4.31173841e-01  5.60969799e+00 -7.22931912e-01 -1.52274275e-01
 -2.57910876e+00  2.28030779e-01 -1.06305544e-02  1.69100119e-02 -2.88613042e-02
  1.94696647e-01  1.85591383e+00  7.43948729e-01 -1.86530112e-01  8.78640172e-02
 -2.94972487e-01 -1.01121327e+00 -2.01952306e-01 -1.36959035e-01 -1.37916095e-01
  1.48654770e-01  3.72672824e-01  3.32962809e-01 -7.31015367e-02 -8.95380444e-03
 -6.86183381e-02  1.88165163e-02 -8.17326004e-03  9.79314001e-03 -2.79302506e-02
  8.11516545e-01 -7.17134584e+00  1.41006508e+00 -9.28286596e-01  1.26966554e-01
 -3.19443720e-02 -5.08190410e-02 -1.04358906e+00  2.12169204e-01  3.30932829e+00
  4.39925395e-01  2.94338968e-01  3.00626999e+00 -3.69225348e-02  1.33344717e-03
 -3.42013884e-02 -3.77018225e-02 -9.52475317e-02 -9.00949255e-01  5.01330562e-01
 -3.33490028e-02  7.78570513e-02  2.16096785e-01 -1.16946471e+00  4.49607895e-01
 -4.14269269e-01 -8.20991629e-02 -1.35167643e-01  8.44180823e-02 -2.19723589e-01
  6.31802272e-02  8.89428430e-03 -4.87246484e-02 -1.08536566e-02  5.82891355e-03
  1.29262792e-01 -2.66140338e-01  2.16099125e-01  9.17642433e-02 -1.62004429e-01
 -1.67876881e-01 -1.90023527e-01  3.25893984e-01  3.78934519e-01  3.09544420e-03
 -4.12750230e-03 -2.03395477e-02  2.45504568e-01  1.58477337e-01  4.54906088e-02
 -1.30614640e-02 -1.77714788e-02  4.30598041e-02  4.57745784e-02  4.11507037e-02
  9.51730598e-02 -3.08857993e-03  1.13732842e-03  1.37627616e-01  5.36114213e-02
  1.99308688e-02  6.79498811e-03  1.74147310e-01  5.40672831e-01  5.46448883e-02
  2.49458257e-02  2.43985872e-02  1.36365672e-01  4.09245206e-01  3.09418695e-02
 -5.84872678e-03  6.30080276e-04 -1.61479436e-02 -4.67181633e-02 -2.03045042e-02
  3.66555659e-03 -6.36713665e-03  1.51404180e-02  6.73832849e-02 -1.11156053e-03
 -6.49056737e-04  5.00526752e-03 -3.90060335e-04  1.89424415e-03 -1.02921879e-01
 -2.94095869e-01 -7.75262362e-02  1.99153964e-02  1.13327606e-02  1.79034569e-02
 -5.91640458e-02 -2.79555164e-02  8.47326205e-02  1.08992977e-02 -1.59914930e-02
  9.53894986e-02 -4.44856200e-02  1.64308453e-03  2.22076600e-02 -1.20153248e-01
 -3.34398110e-01 -2.57807860e-02  3.11844241e-02 -3.27315932e-04 -1.24497015e-01
 -4.10659740e-01 -8.89864871e-04  5.97129370e-03  4.28225431e-03  5.61562529e-03
 -1.34507546e-03  1.64126995e-02  1.46158136e-02 -4.06404792e-03 -1.66157532e-02
 -9.44828548e-02  8.77476853e-03 -7.50834689e-03  1.43046256e-02  4.55963808e-03
 -1.88830768e-02 -2.88876316e-02  9.84156431e-04 -1.84634505e-02 -1.02167428e-02
 -4.09235453e-04 -9.57061597e-03 -1.96253195e-03  7.88977857e-04  4.18177612e-02
  6.68173865e-01  3.55214107e-01  1.20574295e-01  1.22486346e-01 -1.59736810e-01
  6.75466233e-02 -1.13505688e-01  1.59951587e-01  4.25334081e-01 -3.01918722e-01
  3.79948718e-01  3.12030563e-01  8.03563369e-02  2.05504293e-01 -2.51883179e-01
 -4.20736474e-03 -1.05225645e-02  1.12288078e-01  2.12820270e-01 -2.76547217e-01
  9.36374571e-04 -9.32044964e-04  9.05367557e-02 -2.10736757e-01  2.60539023e-01
 -1.26376340e-03  1.67085044e-03  1.01883734e-02 -1.04968573e-01  1.54684950e-01
 -6.00849793e-03 -3.84660825e-03  2.64375734e-02  1.18875612e-02  1.16536764e-03
 -2.29694890e-03  1.10242524e-01 -5.87056980e-01 -6.09891961e-01 -1.69305671e-01
  2.92486902e-01 -3.65265453e-01 -4.84270251e-02 -8.20110241e-01  1.00444684e+00
  4.61278556e-01  9.22604389e-01 -1.13662239e+00  1.27228028e-01  6.91231919e-02
 -5.97750313e-02  3.50836675e-02  4.60033661e-04  6.00690577e-03 -2.16221481e-01
  2.17283983e-01 -2.22985133e-01  5.01305807e-03  3.10267540e-03 -6.09222307e-03
 -2.13867291e-01  2.74889518e-01  4.09719808e-03 -7.92867901e-04 -2.30527691e-03
 -8.99293154e-02  1.54178316e-01  8.33289287e-03  4.89459056e-03  4.22651496e-02
  1.93447942e-02  6.63968889e-01 -3.30253526e-02 -5.31030916e-01 -4.17730596e-02
  2.49211559e-02 -2.53828048e-02 -2.37606453e-02  1.90982762e-02 -2.66270286e-02
 -2.78002023e-02  9.48287425e-02 -5.81617778e-01 -9.74257506e-01 -1.19795812e+00
 -2.05719631e-01 -3.78315233e-02  4.77698671e-02 -5.38672174e-01  7.33236309e-02
 -8.74678399e-02 -5.10070377e-01 -2.41192416e-03  6.71312391e-03 -9.30498915e-01
 -1.59140617e-01  1.04470576e-02 -1.77183138e-02  3.90170503e-02  2.23257101e-02
 -3.76207515e-01 -4.55832658e-02  7.67112255e-02  3.70777956e-02  3.34776088e-03
 -1.96822887e-01 -1.00004042e-02  1.17391284e-02 -4.62002403e-03  1.47442265e-03
  2.16188995e-01  7.69028100e-02 -1.12820801e-01 -9.12568211e-02 -1.71242885e-02
  9.74835256e-03  5.25215527e-02  8.06787203e-02 -1.13515307e-01 -1.21884778e-01
  7.42073801e-01  2.02360741e+00  3.66964415e-01 -4.12122361e-05 -4.23776380e-03
  1.77177308e-01 -7.07983331e-02  1.05032489e-01 -9.89727963e-01  7.26252689e-02
 -1.19508902e-01 -5.06177196e-01  2.77089883e-01 -1.73299814e-01  2.51177331e-01
 -4.97133657e-03  2.31079144e-02  2.05950624e-01  2.09683470e-01 -3.01476608e-01
  3.61746062e-02 -1.70941660e-02 -7.75803585e-02  9.04716120e-03 -1.89374966e-03
  1.54964798e-02 -4.08627050e-04 -7.60289383e-01  1.95440909e-01 -2.83289152e-01
  1.74790399e-01  3.16159302e-02 -1.79619155e-02  1.01023531e-01  7.03788613e-04
 -8.84575533e-03  1.76288186e-02 -1.10330810e-01  6.05707491e-02 -1.43743562e-01
 -2.66653025e-02  1.37027308e-02 -2.37663783e-02  1.16692686e+00 -1.58855263e+00
  1.96863808e+00 -4.83394050e-01  4.38244517e-01 -7.66063637e-02 -9.41400888e-02
  9.25442507e-02  3.56566655e-01  2.06278360e-01 -1.88584412e-01  4.11798155e-01
  3.46444726e-02 -5.25043261e-02  2.18466883e-01  1.12439336e-01  8.15347642e-02
 -6.17650773e-02 -2.22535455e-03 -1.43643955e-02  1.40811394e-01  6.75304751e-02
 -4.36603349e-02 -9.83983850e-03 -4.06995484e-03  3.52561405e-02  2.62843332e-02
 -3.63716865e-02  2.04832089e-03 -9.07128987e-04  1.90704938e-02 -5.29450723e-03
  2.07026404e-03  1.23857415e-02  1.24511962e-02 -7.22575921e-03 -7.88507818e-03
 -1.06111388e-01  1.34280826e-01  1.76050285e-01 -9.43968545e-01 -3.11667684e-01
 -7.60394091e-02  1.24554528e-02  1.14233676e-02 -7.27023980e-02 -4.35321300e-02
 -1.61898134e-02  8.22642861e-01 -1.67408177e-01  2.02153311e-01  1.37504496e-01
 -2.42303209e-01  1.70123423e-01 -1.37010396e-01  3.80153945e-02 -1.81453417e-02
 -4.43501237e-01 -1.77074228e-02  2.16444980e-02 -2.61246120e-02  1.18391330e-02
  5.49559553e-02  5.93204444e-02 -6.86101928e-02 -1.01109261e-02  3.07828149e-03
 -6.03593449e-02  5.99445930e-02 -5.75311308e-02 -3.31311846e-02 -1.59622616e-02
 -5.93247898e-03 -1.45200983e-02  1.25519034e-02  3.12732162e-03 -9.31829554e-03
  2.78482478e-03 -1.09034463e-02  3.79497589e-03  2.76101970e-03 -3.43154279e-03
  7.42661006e-04  2.85085243e-02 -6.83785444e-02  1.18135961e-01  1.27930804e+00
 -1.73422994e+00 -1.95544186e-01 -9.35612519e-02  5.31740440e-02  9.56355076e-02
  4.71716189e-01 -7.92048894e-01  1.12726340e+00  4.02418606e-01 -3.29745227e-01
 -1.23943194e+00  2.62056783e-01  1.58641151e-01 -4.62004052e-01 -4.33163929e-02
 -4.65359340e-04  2.64274147e-01 -1.47900845e-01  7.74302041e-02  3.42473169e-03
 -9.47025023e-03 -3.44036843e-01  2.95330492e-01 -2.69519989e-01  5.95399823e-03
  2.38506342e-03  1.21491262e-01 -5.22272616e-01  1.98482155e-01 -1.59927153e-01
 -3.62064552e-02  7.19598203e-02  2.12823754e-01  6.33373567e-02 -1.24869755e-01
  6.91870697e-01 -2.70304258e+00  2.58260497e+00  2.74798877e-01 -8.83824460e-02
  6.97910421e-02  1.98243128e-02  7.00137520e-01 -3.23518290e-01  8.32104087e-01
 -1.21194074e+00  1.13439725e+00 -1.74639375e-01 -1.33936531e-01 -4.41829190e-01
  3.73302018e-01 -3.03035780e-02  1.02239436e-03 -1.53013978e-01  3.70263914e-01
 -6.65843036e-01  9.48040015e-02  1.62256376e-02 -9.10227345e-02  2.59452795e-01
 -2.56364853e-01 -1.56783510e-02 -2.15607037e-04  1.07694673e-01 -8.65007333e-02
  3.69392963e-01 -1.05419833e-01 -2.25970384e-02 -2.74338496e-02 -1.31353478e-01
  9.47461342e-03 -2.23571446e-02  3.01695414e-02 -7.24367157e-03  8.05722887e-03
 -3.18443906e-03  1.65906214e-02 -1.11710904e-02  2.45497675e-02 -1.97897187e-02
  4.82514282e-02  3.22824410e-01 -5.15881979e+00 -1.70212830e+00 -4.89635482e-01
 -4.41821984e-02 -1.11775241e-01 -2.25202714e-02  6.16561504e-01  7.55524991e-02
 -3.80553445e+00 -6.74788142e-01 -1.24569107e+00 -8.66622425e-01 -1.40173488e-01
  1.48789140e-02  2.26610851e-02 -1.12524128e-01  1.40243012e-01 -1.40278436e+00
  4.53171393e-01 -4.66560334e-01  2.15969888e-01 -2.56354710e-01 -2.47309543e-01
 -2.46042306e-01 -4.71536843e-01 -4.06603223e-02 -9.77420329e-02 -2.62134500e-01
  2.27886879e-01 -1.52358016e-01  4.72227225e-03 -2.48389062e-03 -7.88506905e-03
  5.63488543e-03 -5.81441749e-03  1.48693697e-02 -4.60278478e-01  4.49638490e+00
  2.80424808e+00  8.81041756e-01  6.74400472e-02  8.25230962e-02  4.38094056e-02
 -6.50408957e-01 -1.62957500e-01 -2.40170572e+00  5.65224856e-01  1.53071698e+00
 -1.54467860e+00 -7.04688794e-03 -3.26314977e-02  1.08617357e-01 -8.91897482e-02
  1.75746736e-01  7.17329318e-01  4.23917063e-01 -5.24168044e-01  1.97442675e-01
 -3.98165859e-01 -1.98724700e-02 -1.00530393e-01  2.14989905e-01 -3.90649372e-01
  7.59591141e-01 -3.42382547e-02 -1.23565156e-01  4.03525885e-02  3.59893374e-02
 -5.24054155e-02  5.35103263e-03 -3.04583003e-03 -1.42939965e-01  2.45662604e-01
 -1.24860872e-01  4.25710975e-03 -6.91505644e-03 -9.82123707e-02 -9.01373536e-03
  1.04249895e-02  2.27743895e-01  2.64303231e-03 -1.22184467e-02 -1.54728297e-01
  4.94553641e+00 -9.52098641e-02 -7.68054830e-01 -4.09445551e-02 -2.76397826e-02
  6.45010377e-02 -2.54099672e-01 -4.59810801e-01  1.79177702e+00 -6.72453554e-01
 -9.93460430e-01 -1.90279335e+00  2.35407829e-01  3.18226710e-02  3.90435039e-02
 -1.05473067e-02 -1.14775958e-01 -1.40203829e-01 -5.35090719e-01 -6.77931527e-01
  2.99306172e-02  2.78449922e-01 -7.31248112e-01 -1.09895466e-01 -3.82456732e-01
 -3.30718775e-01 -5.84981451e-01 -8.24437640e-02 -1.78313569e-01 -2.38577263e-01
  1.81522836e-02  1.58051914e-02 -2.74970430e-03 -5.45197762e-03 -3.15933576e-03
  4.06165398e-03  2.01240823e-01 -5.49147729e-01 -2.06852890e+00  5.94592296e-01
  1.94813248e-02  2.56155754e-02 -5.99234293e-02  1.67598685e-01  2.05143696e-01
  7.68847264e-01  8.35117880e-01  1.35572627e+00  3.20583493e+00  5.45228527e-02
  6.12531581e-02  7.09761473e-02  1.35566363e-01  5.07218994e-02 -5.63239188e-01
 -4.39699675e-01 -5.63115930e-01 -3.23790086e-01 -1.52011807e-01 -1.40126932e+00
 -5.28384675e-02 -1.79942145e-01  5.94844977e-01  3.39524026e-01  1.35393621e-01
  8.16625244e-02  1.18042159e-01 -1.18286409e-02  2.12129080e-02  4.01673508e-04
 -1.12651210e-03  3.99662146e-01 -8.00513811e-01  5.92104097e-01 -2.49492746e-02
 -7.49892855e-02  2.28555835e-01  4.98368767e-02  1.47093110e-01 -4.21179387e-01
 -5.91507355e-03  1.14013887e-02 -2.59802418e-02 -2.04609075e-01  2.66736605e-01
  1.21939714e-01 -1.01459635e-01  1.35104801e-01  1.88572076e-02  7.93132009e-02
 -1.17674586e-01 -1.81343283e-01  2.66355192e-01 -3.41468417e-01  2.35193428e-01
 -1.91574098e-03 -2.16634610e-01  2.74145528e-01  1.27392476e-03 -8.10267233e-03
 -3.31548240e-02 -1.89395848e-01  2.45020070e-01 -3.50625876e-03 -5.28029901e-03
  8.41423268e-02  1.87871866e-01 -2.36237307e-01  3.94688379e-04  2.11885710e-04
 -5.60262684e-03  9.38107549e-02 -1.39029292e-01  6.66460125e-03  1.75594384e-03
 -1.30091047e-02 -3.01072426e-03 -2.79589458e-03  4.06864941e-03 -2.99849128e-02
  2.03384382e-01 -2.31877795e-01 -1.65422866e-01 -2.66024539e-01  3.35330227e-01
  1.95009173e-02  7.47403961e-01 -9.28070728e-01 -1.45476099e-01 -8.15651040e-01
  1.02383869e+00  3.45756234e-02 -3.85508356e-02  3.73877975e-02 -1.83793343e-02
  7.95634690e-03  2.22358687e-03  6.07503199e-02 -2.05321118e-01  2.20954881e-01
 -8.62971358e-03  6.18652460e-03  3.60171456e-02  1.85896867e-01 -2.40500820e-01
 -3.14421875e-03  6.85934304e-04  1.97725353e-02  6.47132179e-02 -1.16078494e-01
 -1.02496445e-02 -1.49493391e-03  2.72537989e-04  2.76343581e-03  7.18259351e-01
 -1.64322962e-02 -5.97065231e-01  3.41186663e-02 -2.31242765e-02  7.14076766e-03
  1.72324360e-02 -1.75745744e-02 -1.85377912e-02 -6.58435599e-03  1.14645784e-02
 -5.22603226e-02 -5.99488769e-01  4.29735257e-01  2.13489602e-01 -1.26857342e-01
 -1.03638362e-01 -1.36108472e-02  1.31697537e-01  1.25489326e-01 -4.14166340e-01
  2.17889777e-01  1.41140211e-01  3.62802353e-01 -3.06543076e-02 -1.62991883e-01
 -1.02181865e-01  1.23298348e-02 -2.64855235e-02 -1.06902026e-01 -6.35620675e-02
 -5.20604678e-02 -1.45673405e-02  6.98688292e-03  1.63477489e-01  1.51624518e-01
  1.00451647e-01  1.92916092e-03 -9.06616898e-04 -4.73324815e-02  2.90075776e-02
  3.74466602e-02  1.41434529e-02 -5.38771385e-03  2.05695616e-01  4.47133849e-02
 -5.23777341e-03  1.09446362e-02 -1.16700991e-01  6.62127899e-01 -4.24939732e-01
 -2.40660131e-01 -1.80637101e-01 -1.12515831e-01  2.17392408e-02  5.58649478e-01
  3.34250138e-01 -3.56062351e-01 -7.28914956e-01 -4.59833087e-01 -1.50680098e-02
 -1.26139947e-01  2.29364715e-01  9.80129672e-02  7.26993719e-02 -1.34138761e-02
  2.30337708e-01 -3.20009631e-01 -1.43196437e-01 -6.19618457e-02  2.58427009e-02
  6.31325619e-02  1.73507128e-01  1.19362360e-01 -1.29729123e-02  6.36278061e-03
  5.01541574e-02  2.17559792e-03  6.60608186e-02 -4.48485651e-02  2.33477963e-02
  2.53462216e-01  1.08411230e-01 -2.96843918e-02  2.57276358e-02 -1.56210252e-02
 -2.38978344e-01 -7.05494576e-02 -6.81745043e-01 -5.60996871e-02 -1.46618425e-02
 -1.96615677e-01  7.50946238e-02 -1.56413959e-01  6.87801983e-01  3.14185520e+00
  1.09102246e+00  6.84353612e-02 -1.20213685e-02  1.46877731e-02  4.72420851e-01
 -9.66299803e-03 -2.48713818e-02  2.17210931e+00  2.59643407e-02  5.62526553e-04
  7.02642252e-01  3.26391031e-01 -1.59647211e-02  7.18900882e-03 -5.34110801e-03
 -1.48913509e-02  6.62738324e-01 -5.64549331e-04  2.31777026e-02 -1.41428729e-03
  2.96625917e-03  1.00087256e-01  2.19836420e-02  4.58157337e-03 -1.14270419e-03
 -3.20961040e-03 -3.94272699e-02 -1.02611115e-02 -3.45527139e-02  7.48854341e-03
  1.48827920e-02  1.29115766e-01  3.51095458e-01 -6.26135414e-03 -1.78284863e-03
  6.35247788e-01 -3.11616059e+00 -2.10952920e+00 -2.88198541e-01 -2.10442862e-02
 -2.62961880e-03 -2.55074329e-01  5.97343586e-02  2.18778477e-02  2.30310638e+00
 -6.68308305e-02 -2.54975606e-02  7.81930087e-01  2.01304522e-01  5.00242135e-02
  7.25055309e-02 -6.34655612e-03 -7.37661425e-02 -1.04958295e+00 -6.90858687e-02
 -8.25023076e-02  1.55120080e-03  4.61060505e-02 -8.22950160e-02  1.25391561e-02
 -3.35658742e-03  8.75824655e-04  9.69092832e-03  3.62515308e-01 -1.66385889e-02
 -8.82132606e-02 -1.55441938e-02 -7.35171147e-03  2.48901283e-01  6.48072985e-01
 -3.29045243e-02  7.63518196e-03  1.97797975e-02  2.94356282e-01  1.70125464e-01
  1.10124202e-01  6.36516086e-02  3.63041545e-02  2.49934123e-02  4.22081013e-02
 -8.01363077e-02  4.07411311e-01  3.21433698e+00  1.33223317e+00  6.54863830e-02
 -6.22959086e-02  7.18429047e-02  4.00081182e-01  1.47458298e-01 -1.39874836e-01
  1.94173308e+00  6.92654698e-03 -3.39458009e-02  7.97128473e-01 -3.68541303e-02
  6.90988759e-02 -4.25439702e-02  1.97263148e-03  3.30993194e-02  5.39025887e-01
  2.50698740e-02 -4.89599531e-03  2.06003821e-02  2.02390460e-03  1.56579484e-01
  3.31576119e-03 -2.10203438e-02 -3.32671261e-03  2.49417322e-03 -6.68519873e-02
  2.11880468e-02 -2.63165411e-02 -3.61517143e-02 -4.02869287e-02  1.66610320e-02
 -2.77275693e-02  1.13829160e+00 -1.46216227e+00  1.74586903e+00 -2.93899149e+00
 -2.95823267e+00 -2.19854476e-01  2.40058684e-02  3.97559349e-03 -4.83163180e-01
 -9.18490313e-02  1.70190732e-02  2.31358460e+00 -3.13240477e-02  9.75466684e-02
  8.11358650e-01 -3.82979066e-03  2.22040095e-02 -1.73840186e-02 -5.52404685e-02
  8.21836324e-02 -7.30739877e-01  8.61470713e-02 -6.11874847e-02  5.35957415e-02
 -3.94248895e-02 -9.81614976e-02  3.07102836e-02 -4.48078373e-02  1.55269155e-02
 -9.41306866e-03  2.86104298e-01  1.00842566e-01 -1.09309827e-01  8.77016874e-02
  5.05230519e-02  3.31891045e-02 -4.94367005e-02  9.93922629e-03  6.04296577e-03
 -1.79296428e-02 -2.60873733e-02 -9.67275678e-03 -1.23779526e-03 -6.65800920e-03
 -3.51113104e-03 -7.01240981e-03 -5.35316195e-03  1.65237444e-02  5.04094225e-01
 -6.17222221e+00 -1.46240119e-01 -7.04030421e-02 -7.98611476e-02 -3.61597442e-02
 -4.00354120e-02 -1.71824592e-01  1.80762842e+00 -4.16643835e+00 -1.02961317e+00
  6.91671136e-01  3.75586180e-01 -1.85917340e-01  1.50322008e-02 -6.06062246e-02
 -1.53112419e-01 -1.65776498e-01 -1.42949290e+00 -5.80389402e-01  1.89640947e+00
  2.75683128e-01  2.74721014e-01  1.30601498e-01 -4.43253211e-01  1.90563102e-01
 -2.12547599e-01 -1.42424352e-01 -2.77371392e-01 -2.10544316e-01  7.91160653e-01
  3.33456795e-02  4.63872337e-02 -1.64876912e-02  7.86025492e-03 -4.73503878e-03
  1.36314584e-02 -5.52382560e-01  5.14401356e+00  1.05308348e+00  5.56835585e-01
  5.59877979e-02  8.41058236e-02  4.96576115e-02  3.99925665e-02 -1.46716758e+00
 -2.60670178e+00  1.38330970e+00 -1.36018352e+00 -1.63730279e+00 -1.65661763e-02
  1.07198027e-01 -1.13976449e-01  2.33101009e-03  1.96865032e-02  8.23009349e-01
 -6.16015692e-01  1.51024167e+00 -1.80800253e-02 -5.20107064e-02  1.35269782e-01
  1.70006343e-01  3.92615765e-01 -5.84883833e-02 -5.89973908e-02 -4.10960192e-02
  8.12800665e-02 -4.05971009e-01  4.00914009e-02  4.62815533e-02  8.21941206e-03
 -5.29308455e-03  1.73904034e-02 -3.96593437e-02  3.60866390e-02  1.15680429e-01
  1.15066390e-01  2.56060995e-03 -2.31938621e-01 -2.28556141e-01  7.19999608e-04
 -2.89829992e-02  7.39338993e-02  6.68493356e-01 -1.08878859e+01 -3.95192018e+00
 -2.35614434e-02 -2.65850418e-02  9.11914198e-02 -5.41660070e-02  5.93983656e-01
 -1.33546334e+00 -7.27346766e+00  4.42828443e-01 -7.05754681e-01 -5.57548101e-01
 -2.71877261e-01 -2.21878061e-02  9.44536830e-02 -8.30718596e-02 -6.35877132e-02
 -2.52470507e+00  5.69047991e-01 -1.24737174e+00  1.83476017e-01  1.15171773e-01
  4.05623913e-01  1.27807254e-01  2.14680322e-01 -5.60313390e-01 -4.34287592e-02
 -4.35153811e-01  2.08557712e-01 -3.95814872e-01  2.74124694e-02  7.12477996e-03
 -4.10695905e-03  6.12945612e-03 -9.63356312e-03  2.73088432e-02 -9.38168830e-01
  8.54401081e+00  4.00267014e+00  2.82393438e+00  1.74238332e-02 -6.76161328e-02
  6.87681284e-02 -3.65699208e-01  9.01438357e-01 -4.26401740e+00 -6.87506753e-01
  9.40493655e-01 -4.67699436e+00 -4.53640177e-02 -2.75612711e-02 -5.94931176e-03
  1.31821359e-01 -2.10756975e-02  1.44871895e+00  4.05237874e-01 -6.37363214e-01
 -3.33434065e-01  4.73082932e-02  5.95431678e-01  3.09617264e-01 -1.03794718e+00
  6.36776228e-01 -1.23147360e-01 -9.59570974e-02 -1.25573720e-01  2.66929820e-01
  5.73903133e-03  1.76084699e-02  4.32364105e-03 -3.31487681e-03 -3.00238630e-01
  5.83585350e-01 -4.10563622e-01  5.62583707e-02 -1.06670581e-01 -6.89077425e-02
 -1.15276334e-01  2.21149478e-01  1.14420521e-01  1.78166432e-02 -4.26071716e-02
  2.58507734e-01  3.04586114e-01  1.24624994e+01  2.57587269e+00  3.08838036e-02
 -2.15510109e-02  2.76384237e-02 -2.14354826e-01  4.06038442e-01  6.38787098e-01
  9.03408827e-01 -1.11981135e+00  8.76853596e+00 -3.51847766e-02 -2.16902042e-02
  7.53793786e-03 -9.05109491e-02 -1.29376301e-02  3.68953404e-01 -7.22107448e-02
  3.84622807e-01  1.96420013e-01  4.19976451e-03  2.23815289e+00  3.37926592e-01
 -6.20798736e-01 -2.37561115e-02  1.82341471e-01 -2.53465926e-02 -6.73650272e-02
  1.82735494e-01 -9.06785046e-03 -3.11234246e-03 -1.66724160e-02  6.12931178e-03
 -1.28841170e-02  3.35675493e-02 -3.19992260e-01  1.46151014e+00 -1.46073383e+01
 -4.35792774e+00 -5.34279393e-02  7.09565960e-02 -1.23956316e-02  3.70620072e-01
 -6.54930989e-01  2.93823418e-01 -9.58532371e-01  1.21297223e+00  3.04001032e+00
  8.98507254e-02  1.42537328e-02 -3.90102292e-02 -1.32461215e-01 -5.67634271e-02
 -3.90984238e-01 -1.27719623e-01  3.73263123e-01  2.97054559e-01  1.42150321e-01
  7.84349388e-01  2.54741503e-01 -3.50647790e-01 -5.16337539e-01 -2.99479277e-01
 -5.31288410e-03  3.35169520e-02 -8.84102980e-02  3.41993054e-02  9.62154620e-03
  3.97102266e-03 -2.71567623e-03 -1.49693699e-01  3.87325117e-01 -4.32916170e-01
  4.13580261e-02 -2.73003181e-01  1.87093660e-01 -7.33445862e-02  5.46988678e-01
 -5.18820130e-01 -6.65941301e-03  2.55151120e-02 -1.81582559e-01 -1.95072421e+00
 -6.04404662e-01 -1.81525991e-01 -1.86645183e-01 -1.58971688e-01 -1.77054754e-01
  1.96559815e-01  1.54646120e-01 -1.31800348e+00  2.93659360e-01  2.68708248e-01
 -4.95769710e-01 -1.99793977e-01 -2.09766100e-01 -1.91685211e-01 -3.31299154e-02
 -2.81451127e-03 -3.64977781e-01 -1.11074126e-01 -8.55105205e-02  7.64201391e-03
  4.36601005e-04 -1.28411488e-01  1.98844385e-01  1.92792608e-01 -3.06514274e-03
  5.31797847e-04  4.42713403e-02  7.32996547e-02  3.43863393e-02  1.86173310e-02
  5.44059682e-03 -2.22995187e-05  5.79045222e-02  1.96725624e-03  6.09555043e-03
 -3.87846142e-01  1.86256429e+00  1.22836601e+00  2.77802230e-01 -2.49722194e-01
 -2.19222000e-01  1.47665559e-01  7.38640734e-01  6.75768236e-01 -1.31297537e+00
 -9.57111558e-01 -8.80135965e-01 -3.84072447e-01 -1.55405568e-01  2.51999470e-01
  2.72978844e-01 -8.37952183e-02  9.90251472e-03  5.72113087e-01 -3.73169108e-01
 -3.90449450e-01  5.86973730e-02 -1.39764196e-02  4.46163091e-02  2.39202182e-01
  2.11360844e-01  1.54009450e-02 -3.14368476e-03 -6.41764226e-02  6.50831463e-02
  1.75662864e-02  4.46802846e-03 -1.29791187e-02 -1.04739909e-02  1.00504143e-01
  2.69126871e-02 -1.66207671e-02  1.76652714e-03 -4.12835276e-01  1.38349380e-01
  4.79295694e-01 -8.71722473e-02  3.85478077e-02  1.29262214e-01  1.81019646e-02
 -6.15483967e-02  3.41547538e-01  4.36375974e+00  8.40577070e-01  7.94481578e-02
  2.90851352e-02  7.50573369e-02  3.74304986e-01 -3.38444898e-02 -4.92471473e-02
  2.89276770e+00 -6.44069339e-02 -1.70612279e-01  6.04862684e-01  4.35271242e-01
  3.98140819e-02  1.30552911e-01  5.30272612e-02 -4.84323263e-03  8.21923066e-01
  2.17345183e-03  2.91639773e-02 -3.47076128e-02  7.16875008e-03  6.82725768e-02
 -5.66341320e-02 -1.13440355e-01  7.95643249e-03 -2.55560071e-04 -1.43515766e-01
  2.89007514e-03  1.70350120e-02  7.62491854e-03 -3.62608484e-02  6.71722862e-02
 -4.42105373e-02 -9.40749266e-03 -5.18064249e-03  8.31628328e-01 -4.04224928e+00
 -2.17020770e+00 -2.43796450e-01  3.86132644e-02  1.44483779e-01 -3.27629512e-01
 -1.33032064e-01 -4.71593200e-01  2.83629743e+00  2.05598233e-01  5.83856837e-01
  8.38074720e-01  2.57968460e-01 -8.50290458e-02 -2.56931880e-01  2.00741588e-01
 -1.22877149e-02 -1.14762949e+00  1.01704359e-01  3.48359760e-01 -1.59535492e-01
  3.76633394e-02 -1.54502164e-01 -4.35936304e-02 -1.29611102e-01 -4.10062728e-02
  5.40538355e-03  1.64649594e-01  1.98450803e-02  8.35744111e-02 -9.48085182e-02
  5.94598008e-02  7.22706784e-02 -4.53462510e-02 -3.70365548e-02  1.07524763e-02
  2.14448332e-02 -5.32408914e-01  3.98890009e-01  3.33941275e-02 -1.27049905e-01
  8.50699493e-02  7.93395412e-03 -3.93092851e-02  8.37621885e-02 -3.79549367e-01
 -1.87076393e+00 -8.70317461e-01 -1.15487393e-01  1.81079479e-02  9.87546595e-03
 -2.71833807e-01 -1.43332309e-02  7.61059623e-03 -1.28914170e+00 -3.29940718e-02
 -2.89442358e-02 -5.85443927e-01 -1.92347880e-01  1.44703383e-02  2.64659273e-02
  2.06760550e-01 -8.30611567e-02 -3.91261029e-01  6.48417897e-03 -1.91700080e-03
  2.26252238e-02  6.67689167e-03 -1.28791544e-01 -2.10434246e-02 -2.23706436e-02
  3.83068789e-03 -4.72033346e-03  3.53053615e-02  6.22297884e-03  1.34381054e-02
 -1.88715270e-01  6.05171179e-02  3.20821528e-01 -9.52120346e-02  1.14167921e-02
 -1.19485815e-02 -3.36256932e-01  1.73614027e+00  1.58180283e+00  2.54986476e-01
  2.61945144e-02  2.60619918e-02  1.58740124e-01 -7.69643989e-02 -8.86668844e-02
 -1.36958731e+00  9.86581114e-02  1.01670674e-01 -4.94187467e-01 -1.13905589e-01
 -4.13469631e-02 -7.20955979e-02  3.98410257e-01 -2.23919439e-01  6.09470872e-01
  5.62513693e-02  9.55846142e-02 -2.52840064e-01  1.52462382e-01  3.90467038e-02
 -2.47209890e-02 -2.03530239e-02 -3.62211960e-02  2.77819950e-02 -2.04758103e-01
  1.31447665e-02  3.49912516e-02  2.25429590e-01 -3.01841887e-02  5.94362618e-01
 -1.78808355e-01 -4.39238671e-03 -7.73064740e-03  1.64550636e-02  8.94990857e-02
 -6.01070848e-02  2.29948974e-01  1.86739260e-02 -1.27821773e-02  5.90435130e-02
 -7.59039438e-02  1.30969482e-01 -3.55391366e-01 -5.15376460e-01 -1.04872263e+00
 -9.01313386e-02 -1.75221886e-03 -2.24497880e-02 -2.16960619e-01 -4.22970951e-03
  3.20466102e-02 -3.89152992e-01  1.86020313e-02  2.11668247e-02 -6.90726882e-01
 -1.37677230e-01 -1.47972778e-02 -2.58412204e-03  2.04145814e-02 -6.11681777e-02
 -1.93387584e-01  6.89511504e-03 -1.28929137e-02 -1.05145478e-01 -1.17106779e-01
 -1.63932286e-01  1.43994048e-02  1.24579588e-02  1.61837610e-02  1.43574964e-02
  4.88124145e-02 -1.67315283e-02  1.53337138e-02  1.40568681e-01  2.33118177e-01
 -7.39708140e-03  1.58895029e-02  2.70199939e-01 -3.66911816e-01  3.23395148e-01
  8.19750266e-02  1.58936214e+00  2.20810497e-01 -1.72550393e-02 -9.59805547e-03
  4.11866651e-02  6.17743947e-02  2.29421270e-02 -5.16922423e-01 -7.42644631e-02
 -4.92293088e-02 -3.53863657e-01  6.34853858e-02  5.38490623e-02 -4.41006855e-03
  3.77991579e-01  1.72951116e-01  2.07667624e-01 -6.64667855e-02  1.00409200e-02
 -3.42627038e-01 -2.35615432e-01 -2.99083853e-02  1.27759918e-02  1.92450861e-02
 -7.69411983e-02 -6.09572515e-02 -2.65363881e-01 -4.14892417e-02  4.20365453e-02
 -4.21344993e-01 -5.42020293e-01 -2.16827290e-02  3.94929082e-02 -4.91633658e-04
 -8.27826897e-03  1.49014190e-02  5.51271311e-02 -9.34134479e-03  2.07469214e-02
  1.20496498e-02 -2.43459398e-03  1.50858134e-02  5.80935412e-04  1.11584671e-03
  1.05866116e+00 -1.14455593e+01 -1.18375406e+01 -7.89583629e-01  2.05408487e-02
 -6.48320365e-03 -3.72327310e-02  7.34984296e-01  1.12788049e+00 -7.15145075e+00
  1.00226558e+00 -5.69833454e-02 -6.83586989e+00 -1.48865435e-01 -3.39848106e-02
 -2.05291182e-02  4.43888323e-02  1.91304208e-01 -2.78972335e+00  9.30637299e-01
  1.24005338e+00 -6.77691270e-02 -3.01627323e-01 -1.23401056e+00  3.94523403e-01
 -7.86683243e-02 -2.71035966e-02  3.97793275e-02 -4.42460747e-01  3.70738559e-01
  5.32281128e-01 -4.67202576e-03 -5.47824516e-02 -2.34739118e-03  4.48328446e-03
  8.17959757e-03 -2.14714632e-02 -3.23119019e-01  5.95706378e+00  1.66563968e+01
  2.78287596e+00 -6.93682421e-03  6.84877698e-02  5.97861969e-02 -4.52759461e-01
 -1.07024467e+00 -4.24817607e+00 -1.45302291e+00 -3.36135153e-01 -6.15514654e+00
 -6.07376336e-02 -8.27535699e-02 -1.19448163e-01  1.77606399e-02 -1.77351415e-03
  1.41472473e+00  7.84000373e-01  1.11148907e+00 -4.07090361e-02  3.74282973e-03
  1.78886226e-01  2.13417923e-01 -1.12626597e-01  1.15296149e-01  2.04487623e-01
 -2.16434350e-02 -1.82887740e-01 -2.63013610e-01 -1.23899700e-02 -5.82135424e-02
  2.20733670e-03  7.84522419e-04  3.65671191e-01 -7.21535369e-01  5.31976812e-01
 -1.65229828e-01 -1.06180625e-01  5.51876019e-02  3.32375634e-01  2.13379141e-01
 -7.65017714e-02 -3.19135807e-02  8.48850423e-02 -8.36786957e-01  1.13990895e+00
 -7.29418888e+00  1.29776630e-02  4.30541283e-02 -5.62374099e-03 -9.80365918e-02
  1.60630162e-01 -2.88835724e-01 -2.47549161e-01 -5.80334716e-02  5.30285045e-01
 -3.63080591e+00 -1.52152768e-01  2.68041106e-02 -1.64398066e-02 -8.32079393e-02
 -2.09445917e-01  4.18699963e-01  3.18857181e-01 -3.29836352e-01  1.69229178e-01
  4.48289559e-01 -1.22528091e+00  1.55490163e-01  1.96870849e-01  6.14529933e-02
 -4.49088369e-01  1.72944378e-01  1.82779634e-01 -1.81061536e-01 -8.05113523e-03
  1.67871015e-02  6.91993575e-03  3.29889102e-03  5.22487224e-03 -9.28787275e-03
 -2.23866499e-02 -1.22834875e+00  7.31348474e+00  1.48063758e+00 -5.46641861e-03
 -3.37186011e-02  5.86500814e-02 -2.29498390e-01  4.32220679e-01 -4.13624500e-02
 -1.70328928e-01 -4.70921625e-01 -1.67918475e+00 -1.54378704e-01 -9.19078945e-02
  5.03099487e-02 -1.39434341e-01 -7.88083551e-02  5.94315960e-01  4.99875078e-01
 -3.92812768e-01  3.14061024e-01  1.50007942e-01 -5.71550612e-01 -4.83861193e-01
  3.44314912e-01 -5.67350764e-01 -2.61361990e-01 -8.73747551e-02 -6.12156387e-02
  7.30700567e-02  3.35393726e-02  6.09174332e-02 -1.93284309e-03  2.00073661e-03
  3.91734956e-01 -8.10591023e-01  6.21581304e-01  5.62353365e-04  1.89742582e-02
 -9.04092127e-02  3.51177911e-03 -3.54966113e-02  2.44916788e-01  2.15699608e-02
 -5.74623299e-02  1.32415684e+00 -7.13746982e+00 -1.37437524e-01  1.06940275e+00
 -8.78505130e-03 -1.23553510e-02  9.61955053e-02  7.93222058e-03  1.30065614e-01
 -4.31275153e+00  5.51823846e-01  6.65538834e-01 -1.05860129e-01 -3.31321037e-02
  3.82309475e-02 -1.82952952e-02  1.63211323e-02 -3.70985636e-02 -1.90054022e+00
 -2.01728379e-01  8.81817180e-02 -1.52658963e-02  1.26575191e-01 -7.06160630e-01
  8.44334472e-01  3.25197004e-01 -1.34981463e-01 -2.85334499e-01 -5.05453326e-01
 -2.65777977e-03  2.20301373e-02 -5.49213639e-04 -1.39432310e-02 -1.72536975e-02
  7.86116954e-03 -5.38963345e-03  7.54191230e-03 -2.54161996e-01  4.99790712e+00
  3.63033118e+00 -2.22083014e+00 -2.46310024e-02 -1.42203892e-02  7.85959856e-03
  2.37346756e-01  8.22032332e-02 -2.87904941e+00 -9.38978563e-01 -8.00353872e-01
 -5.70922179e-01  1.91935938e-01 -2.49399297e-03  2.29750791e-02  4.61083731e-02
 -2.32818808e-02  1.20564511e-01 -1.15981945e-02 -1.89415818e-02 -1.09658211e-01
  3.55200544e-02  8.02408749e-01  3.10967091e-03  3.68502823e-01  2.32713364e-01
  3.21081093e-02  4.33264334e-02  1.02814656e-02 -2.07936842e-02 -1.10264133e-02
  5.58061621e-03  1.35459066e-02 -5.85822579e-03 -1.80935135e-01  3.37407631e-01
 -2.19376659e-01 -4.14527656e-02 -1.89267856e-02 -1.50605202e-01  9.42712723e-02
  3.89636118e-02  3.20758037e-01  2.16001288e-02 -7.10291266e-02  4.08743974e-01
  5.04322953e+00  8.47805672e-01  4.09052907e-02 -8.56139921e-02 -5.84430392e-02
  4.09196726e-01  7.69062727e-02  6.48270492e-02  3.39653031e+00  1.47614715e-01
  7.42981412e-02  5.92172130e-01  4.92324253e-01 -1.12726712e-01 -6.26394500e-02
  4.96465699e-02  1.11347637e-02  9.59597584e-01 -5.63424977e-02 -3.36616327e-02
 -2.82088230e-03  8.77469267e-03  4.47315334e-02  1.06286845e-01  4.15428289e-02
  1.94280150e-03 -3.49078723e-03 -1.46397390e-01  2.24285970e-02  3.30007241e-02
 -3.15646625e-02 -1.32866522e-02 -7.98943251e-03 -5.13585678e-02 -7.67683259e-03
 -1.16500883e-02  9.79477937e-01 -4.77641240e+00 -2.30745593e+00 -2.16352678e-01
 -1.26157386e-01 -7.08790490e-02 -3.77940971e-01  3.92070683e-01  2.03341213e-01
  3.31002826e+00 -4.93395067e-01 -2.56060874e-01  9.09582743e-01  3.60217747e-01
  1.58455580e-01  6.53231813e-02  1.05064684e-01 -9.16305530e-03 -1.38384145e+00
 -2.30871679e-01 -9.51160882e-02 -7.42395211e-02  1.59917493e-02 -1.84703462e-01
  1.18195546e-01  7.13096789e-02 -1.62653388e-02  7.03101434e-03  1.41791862e-01
  4.48031621e-03  3.94124189e-02  1.34409362e-02  4.03640982e-02 -2.05504648e-02
 -6.70491129e-02 -2.47106085e-02  1.75905744e-03  2.37318977e-02 -5.08855991e-02
 -6.41426312e-01  1.40350987e-01 -9.25802862e-03 -1.45714238e-01  3.92357025e-02
  1.31092146e-02 -3.98924899e-02  2.38606070e-01  2.56443001e+00  5.06134853e-01
  5.52755564e-02 -1.20188573e-01 -9.29576435e-02  2.13561825e-01  1.14041537e-01
  9.15104357e-02  1.74118035e+00  2.33498536e-01  1.67514665e-01  3.60970813e-01
  2.49633359e-01 -1.64179228e-01 -1.22374271e-01  7.60543166e-03  2.27098532e-02
  4.81626896e-01 -7.05370481e-02 -5.67945590e-02  8.18223018e-03 -9.64726828e-04
  4.97652993e-02  1.76537215e-01  1.28749428e-01 -1.53222793e-03 -5.44216408e-04
 -6.16871525e-02  2.42333348e-02  2.81225732e-02 -1.76809197e-02 -7.74162077e-03
  3.00074168e-03 -2.38439065e-01 -2.03940420e-03 -8.98424628e-03  5.06967247e-01
 -2.44974459e+00 -1.26208554e+00 -1.49857804e-01 -1.79743179e-01 -1.28412303e-01
 -1.93166693e-01  5.78320478e-01  4.09696677e-01  1.70564013e+00 -7.64352248e-01
 -5.45488725e-01  4.73628318e-01  2.11301704e-01  2.61949828e-01  1.69609321e-01
 -9.30018117e-03  1.96998725e-02 -7.46430577e-01 -3.58529774e-01 -2.37608522e-01
  1.13477810e-02 -2.01501590e-02 -9.00299080e-02  1.73553805e-01  1.27185703e-01
  4.62811878e-03 -2.60935675e-03  6.48343570e-02 -1.87644816e-02  1.57759232e-02
  3.08913744e-02  2.67022093e-03  5.13002273e-03 -3.74612306e-01 -4.71100695e-03
  1.89363515e-03  2.46675043e-03  4.04958840e-01  4.48773016e-01 -6.15160766e-02
  1.02123753e-01  1.07163338e-01 -1.24499876e-02 -3.23683844e-02  7.94379381e-02
 -4.09980133e-01 -1.00658675e+00 -7.13473045e-01 -1.20045475e-01  4.52753236e-02
  2.29504276e-02 -3.07527777e-01 -6.10195085e-02 -2.80888812e-03 -6.72107081e-01
 -7.29523396e-03 -6.99554279e-02 -5.16999852e-01 -1.56475172e-01  9.99237927e-03
  3.90504381e-02 -1.63251458e-01  2.95902012e-01 -2.58547621e-01  3.40478430e-02
  5.65680075e-03 -2.51245907e-02  5.92873153e-03 -1.10688173e-01 -6.62886378e-03
 -4.67171457e-02  4.15086540e-04  1.01273965e-02  5.29039120e-02 -4.81525455e-02
  1.62923622e-02  1.63902710e-01 -2.19642537e-01  1.85093065e-01 -1.75063937e-02
  2.69527055e-02 -3.46413658e-02 -2.06823419e-01  1.03093737e+00  1.15971946e+00
  2.46310940e-01  1.08282577e-02  5.20081875e-02  1.02120563e-01  7.69153972e-03
 -1.80427824e-01 -8.69082505e-01  5.79833332e-04  2.28083355e-01 -3.60029220e-01
  3.68922222e-02  9.35684348e-02 -1.44794205e-01 -3.16499754e-01  6.03593528e-01
  3.45271580e-01 -1.06475887e-01  1.80891916e-01  1.97352781e-01 -4.03217734e-01
 -1.17496177e-02 -1.09697236e-02 -4.94118832e-02  2.61493836e-02 -6.38718848e-02
 -3.51986975e-01 -1.43878057e-01  7.35921021e-02 -2.01875090e-01  2.15284668e-01
  3.36319787e-01 -2.49097066e-02 -1.05671584e-02 -3.59589458e-03  1.72800824e-02
  4.73160131e-02 -5.19185191e-02  1.04543509e-01  8.20770846e-03 -1.27668538e-02
  2.95465518e-02  8.18229098e-02 -1.52984950e-01  4.88161214e-01  1.27882184e+00
  1.49445182e+00  1.59044184e-01  2.62329446e-02  5.29514396e-02  3.75142385e-01
 -5.63002810e-03 -9.88966130e-02  8.22622750e-01 -1.10465632e-01  4.48256422e-02
  1.02684313e+00  2.09891360e-01  5.44696241e-02 -2.57768356e-02 -9.07549376e-03
  7.82740446e-02  3.69097205e-01 -3.68276943e-02  8.74598202e-02 -4.52916905e-02
 -2.71421495e-02  2.31017047e-01 -7.99877573e-02  3.50969599e-02  5.38401721e-03
  1.00419931e-02 -1.18866654e-01  7.08859747e-02 -1.16629318e-01  7.02489442e-02
 -4.78416404e-02  7.74269504e-02 -8.53702922e-02 -2.88800602e-01  3.89260845e-01
 -2.08073722e-01 -6.43711397e-01 -2.44353803e+00 -3.54191071e-01  9.34281389e-02
 -4.54518649e-02 -1.26203612e-01 -3.24273447e-01  2.19171379e-01  1.05494834e+00
  4.25296190e-01 -2.60207406e-01  6.00556525e-01 -9.85145329e-02 -3.24997241e-01
  3.85097093e-01  1.36731566e-01  3.24352496e-01 -3.73659302e-01  3.64454582e-01
 -4.18992161e-01 -1.28350548e-01 -2.09766809e-01  2.42573226e-02 -7.75679557e-02
  2.09672640e-02 -2.81000471e-02 -4.50358801e-02  4.33776426e-01  2.03255253e-01
 -3.47572676e-01 -1.97852661e-01 -1.38387069e-02  1.61797811e-01 -1.69574812e-01
  5.90988762e-03  6.10569687e-03 -1.94225586e-02 -3.40482761e-02 -3.11593584e-02
  1.63374267e-02 -1.31331512e-02 -5.50677393e-03 -9.75451555e-03  1.10702816e-03
 -7.86803366e-03  5.74879444e-01 -2.33285997e+00 -1.96569921e+00 -6.50368688e-01
 -1.46097563e-02 -5.25275201e-02  6.29399337e-02  8.78321112e-01  2.83768899e-01
 -2.58250973e+00 -7.17238569e-02 -5.36586348e-01 -2.28782548e+00  1.15845563e-01
 -4.60637400e-02 -2.01555688e-02  1.95344782e-01  9.17391704e-02 -1.77273504e+00
  1.01634496e+00  1.32802654e-01 -3.99526937e-01 -1.82258364e-01 -5.02990494e-01
 -3.78825034e-01 -4.50908573e-01  5.55746690e-01  6.14731872e-01 -3.75464902e-01
  3.85092080e-01  3.99260761e-02 -3.86827531e-02 -5.73467488e-02 -7.84963191e-03
 -1.99704370e-04 -6.24119825e-03  1.12833232e-02 -2.02535203e-01  4.14954364e+00
  1.58809177e+00  1.12386578e+00  5.89057545e-02  5.59903292e-02 -2.53918541e-02
 -8.63049638e-01 -3.39126370e-01 -1.83938540e+00 -4.86075180e-02  7.10946227e-01
  4.68329708e-01  7.02204910e-02 -5.97797478e-02  4.02604183e-02 -3.63177595e-02
 -2.20767278e-01  1.49612968e-01  7.53602350e-01 -4.47660503e-02  1.17450390e-01
  5.37796708e-01 -8.30198430e-01  1.29970549e-01  2.28089114e-01 -1.85784205e-01
 -9.23285676e-01  1.08549101e-01 -2.00896963e-01 -4.02977356e-02 -4.70862346e-02
 -8.28954767e-03  3.50775893e-03 -5.11351476e-03 -2.04103201e-01  3.89520997e-01
 -2.45495050e-01  1.40803705e-01  5.61214332e-02  4.15470426e-02 -2.89368929e-01
 -1.25333101e-01 -6.81396924e-02 -3.34650174e-05  1.12519427e-03 -5.73778611e-01
  5.59942596e+00 -2.76796119e+00 -1.07059159e+00  6.11351109e-04  9.01300572e-03
 -1.26000521e-02 -3.20212489e-01  4.28062933e-01  2.34017322e+00  4.38145015e-01
  1.68892844e+00 -2.75210198e+00  1.53312446e-01 -2.69246615e-03 -1.07325454e-01
  1.01891724e-01 -5.81866321e-02  4.42901518e-01 -3.66538044e-01  7.23968697e-01
 -2.11524059e-01  1.24626448e-01 -7.07197356e-01  2.75645540e-01  1.95139730e-01
  3.56721876e-01 -2.95400722e-01  1.07064215e-01 -1.67701996e-01  1.33795419e-01
 -1.76969568e-02  2.55578571e-02  1.32963154e-02 -5.82064221e-03 -8.01437495e-03
  1.86754210e-02  7.24944090e-02 -1.48583592e+00 -1.01741600e+00  2.74493844e+00
 -3.56736707e-02 -4.42628703e-02 -4.74520837e-02  4.30514938e-01 -1.16871094e-02
  1.35896566e+00 -4.23252922e-01 -1.84399053e+00  1.66079303e+00 -6.33617535e-02
  4.43431307e-02  5.88594652e-03 -3.22392456e-02  7.67270253e-02 -2.60163220e-01
 -3.60388062e-01  2.46020884e-01  9.52924929e-02 -1.92352698e-01 -1.42925897e+00
  2.02075214e-01  9.09624489e-01 -1.82754844e-01  3.27339078e-01  8.00369046e-02
  7.70868109e-02 -1.02269463e-01 -2.01076788e-02  1.14588500e-02 -4.19032332e-03
  2.11112800e-03 -4.25009157e-01  8.07569056e-01 -5.06917572e-01 -1.51477534e-01
 -1.51184320e-01 -8.78006972e-02  3.03785977e-01  3.01839755e-01  2.10898572e-01
 -2.31216508e-02  6.10101650e-02 -8.68106854e-01  4.20494550e+00  2.06966335e+00
  4.94751148e-01  9.13162697e-03 -1.04951460e-02 -4.38376759e-02  4.81386114e-01
  2.31916653e-01  2.14270005e+00  1.76079421e+00  1.42542322e-01  1.62095205e+00
 -1.28224739e-01 -1.26571516e-01 -3.27613413e-02  1.07120663e-01  2.18364019e-02
  1.43270126e+00  8.43538717e-01  2.74021211e-01 -2.39154978e-01  1.33198185e-02
 -4.39799276e-01  1.96989606e-02 -1.09036655e-01  2.17629672e-01 -4.34536400e-01
  2.37710143e-01  1.53752628e-01  7.57566349e-02 -1.82331890e-03 -3.81014209e-03
 -4.88565980e-03  3.07721854e-03  5.06289405e-03 -8.77651125e-03  1.00457310e-01
 -2.82108672e+00 -2.34421307e+00 -1.60719873e+00 -3.94531933e-02  1.48022577e-02
  3.85808901e-02 -7.85777934e-02 -1.88069992e-01  1.23747024e+00 -1.82610851e+00
 -1.39430869e-01  1.76416488e+00 -4.48726869e-02  1.31413702e-02  5.21153209e-03
  6.48033376e-02  8.50117518e-02 -1.38320736e-01  2.63238105e-01  1.15671988e-01
 -1.37807718e-01 -2.23513412e-01 -1.05422651e-01  1.03779489e+00  2.09164322e-01
  2.31294639e-01  5.49594760e-01 -8.07449517e-02 -1.16166137e-01 -4.83029525e-02
 -3.11070485e-02 -2.03657021e-02  2.75224466e-03 -1.96443649e-03  2.60953565e-01
 -5.62121843e-01  4.45924781e-01  1.99021641e-01 -4.04862708e-02 -1.03640045e-01
 -4.08048163e-01  8.23919549e-02  2.61887166e-01  5.27019981e-02 -1.12698705e-01
  1.02824246e+00 -2.39059450e+00  8.98858903e-01  1.71429561e-01 -2.30801118e-04
  1.46278756e-02  2.60361358e-01 -1.85041466e-02 -2.24274841e-02 -1.28789817e+00
 -4.96702832e-03 -5.89546021e-02  6.20878737e-01 -3.77331934e-01  1.41652444e-02
  6.15720319e-02  1.54268201e-02  1.31090524e-02 -1.50790475e-01 -1.10547672e-02
 -2.15427722e-02 -4.50128164e-03 -1.82343026e-03  1.63840873e-01 -6.45578753e-03
 -3.52670419e-02  1.23942065e-03  4.05435417e-03  2.15909691e-01  6.10568343e-02
  1.18386884e-01 -3.86639089e-02 -7.35245598e-02 -5.59506122e-01  2.81594739e-01
  1.47072730e-03 -5.04012580e-04 -1.98600020e-01  1.19993062e+00 -6.10070171e-02
 -4.24471776e-01 -7.81378395e-03  9.97474703e-03  1.01578012e-01 -1.37556845e-02
 -1.24108487e-01 -7.90645239e-01  2.47000090e-02  1.66959958e-01 -1.05438432e-01
  4.96212742e-01  6.46297154e-02  5.82393433e-02  4.38475075e-02  1.67438598e-02
 -5.21311682e-01 -4.51989488e-02  9.02480701e-03 -2.55852609e-02  6.96887364e-03
  2.05170035e-01 -1.05169675e-02 -4.72660415e-02 -2.95392642e-03 -5.30468381e-03
  3.07013341e-01 -2.82712040e-02 -1.91131087e-02 -2.55313872e-02 -3.65586796e-02
  3.78862243e-01 -2.33316064e-01 -6.14773994e-03  1.01650596e-02 -1.51988308e-02
 -6.81813554e-02 -1.20755041e-02 -4.96000383e-02 -6.33421232e-03 -1.29462936e-03
 -1.68864718e-02 -8.98349286e-02  2.08503059e-01 -1.12888268e+00 -1.65361620e-01
 -3.79496904e-01 -1.99180433e-01 -5.82520681e-03  1.20258658e-02 -5.26293039e-01
  1.14603762e-02 -5.10027031e-02 -4.62400021e-01  3.72495000e-04 -4.05368074e-03
 -3.43967421e-01 -2.19450786e-01  1.16369233e-02  2.80264488e-03 -2.12562475e-02
 -5.41267468e-02 -1.63011096e-01 -2.94835947e-03 -1.96769398e-02 -4.37598771e-03
 -6.60430942e-03  5.10463987e-03  2.04591414e-03 -7.00554393e-03  2.63006564e-03
  5.36377389e-03 -7.28073956e-01 -9.23813809e-03  2.83952841e-02 -5.17561102e-03
 -2.92541286e-02 -4.44282346e-01  2.82623803e-01 -1.61952934e-02  1.73581484e-02
 -1.40453757e-01  1.67439761e+00 -4.29658870e-01  5.60050732e-01  6.56587694e-03
 -1.05222943e-02 -2.33530271e-01 -7.25968795e-03  8.35652615e-03 -5.95539180e-01
 -4.95459531e-04  3.52244922e-02 -3.05361103e-01 -1.73448080e-01 -1.28349013e-02
  4.72352630e-02 -5.05066699e-02 -4.19044505e-02  8.19565065e-01  1.39298801e-02
 -5.36598680e-02  5.04353537e-02  6.30686675e-02 -1.20013834e-01  8.74255724e-04
 -1.13705725e-02  3.68126238e-03 -4.98513866e-04 -6.25603532e-01  8.42066821e-04
 -1.92434003e-02 -2.35833309e-03 -5.33506460e-02  2.61559028e-01 -9.34010227e-02
  4.36259689e-03 -2.50602605e-03 -9.92836542e-04  3.36112285e-02  3.15471595e-02
 -4.57825204e-03  6.72470103e-03  3.23372862e-03 -2.19035760e-03  1.32261394e-02
 -3.13858256e-02  1.74274396e-01  9.86376225e-01  3.93437755e-01  1.09523792e-02
  1.72721003e-03  2.82482931e-02  1.18115767e-01  1.33813280e-02 -1.78551030e-02
  6.74567656e-01 -3.24268951e-02 -4.17075020e-02  2.28363615e-01  1.02103712e-01
  2.34809535e-02  3.07238715e-02 -2.88664545e-01 -2.33875280e-01  1.81267563e-01
 -5.92026934e-03  2.39010775e-02  1.88769339e-02 -2.30180023e-02  3.43311570e-02
 -2.20440401e-02 -2.48850739e-02 -1.14920356e-02 -4.81533410e-03  3.42393414e-02
  2.15051906e-02 -1.99868659e-02  1.88919270e-01  2.04299028e-01  1.41952924e-01
 -7.92044315e-02 -4.56851800e-03  6.30896521e-03  1.40184683e-01 -8.64735633e-01
 -7.36073452e-01 -8.66621942e-02  2.63583628e-02  3.16843330e-02 -5.61598406e-02
 -9.40614814e-02 -8.09076934e-02  6.71449440e-01  1.10068388e-01  9.61377787e-02
  2.68003342e-01  1.08089327e-01 -7.69463030e-02 -1.58246613e-05 -6.88406246e-01
 -4.17005853e-01 -3.55994401e-01  1.05098261e-01  1.78593324e-02  4.88231184e-01
  2.49656476e-01 -3.37750101e-02 -2.10121178e-02 -2.80950209e-02  7.27328614e-02
  3.51322854e-02  6.11963188e-02  6.38144311e-02 -5.18630215e-02 -1.06977931e-01
 -2.62822820e-01  2.50001694e-01 -1.50606166e-01 -1.07231364e-02  4.49248959e-03
  4.38405129e-03 -7.82644264e-02 -4.67757873e-02  1.21635832e-02 -1.52550747e-02
 -9.74595573e-03  1.68557580e-03 -3.96904247e-02  7.29223990e-02 -2.23882958e-01
 -9.89160203e-01 -8.45171584e-01 -8.16166513e-02  5.19880975e-02  1.83413814e-02
 -1.76931083e-01 -7.19171249e-02 -3.27964572e-02 -6.60501925e-01 -5.30195984e-02
  8.38938116e-03 -5.64505696e-01 -1.35492779e-01  7.37621920e-03 -5.15833443e-03
 -4.00441045e-02 -6.12519322e-02 -2.40359864e-01  3.61541121e-02  2.64950431e-02
 -1.01610971e-01  1.21850142e-01 -1.28209567e-01 -3.28585958e-02  5.83749205e-03
  1.02509758e-02 -2.24245091e-02  4.32974832e-02 -2.53859875e-02 -2.96184954e-02
  1.98836838e-01 -1.19884236e-01 -1.45636375e-02 -1.39981575e-02  1.64614844e-01
 -2.22111516e-01  1.02366643e-01  5.65577460e-01  1.44027037e+00  1.85432669e-01
  3.39204059e-02 -1.08910858e-02  7.58398382e-02 -8.34707725e-02  5.30219849e-02
 -7.23578138e-01  1.34375145e-01 -5.99837363e-02 -3.60831863e-01 -1.07508098e-02
  1.56558935e-02  1.19297185e-01  1.95219888e-01 -5.36783032e-01  2.90352116e-01
 -1.64032446e-02 -1.21914349e-01 -2.29738214e-01  4.42062255e-01  6.11504469e-03
 -4.49376302e-02  4.59284203e-03 -5.67232915e-02  1.01106508e-01 -1.66894065e-01
 -7.59292209e-02 -9.98385576e-02 -4.74053347e-01  4.28268150e-01 -1.22380287e-02
 -3.77515437e-02  6.29383909e-03 -7.88754086e-03  7.41852654e-03  6.60920348e-02
 -1.60682622e-02  4.19445646e-02  1.48098334e-02 -2.88846035e-03  1.79628241e-02
  3.92517875e-02 -1.00926977e-01  1.22356311e+00 -2.99753105e+00  1.43107831e+01
 -1.21787288e-02 -2.56350837e-02  3.34192118e-02  1.11637659e-01  4.60107172e-01
 -3.59711418e-01 -1.47506194e+00 -2.36061025e-01  9.54718910e-01  8.07606708e+00
  1.28154303e-01 -4.00697149e-02 -1.29937694e-02 -7.80103640e-03  5.79546713e-02
 -1.29220384e+00  4.98283481e-01 -2.31662260e-01 -7.66755145e-03 -9.16662894e-02
  2.33425535e+00 -4.34827638e-01  3.98220919e-01  2.04106384e-01  5.63743526e-02
 -4.00802767e-01  1.61453994e-01 -1.31675516e-01 -1.76065753e-03 -2.00806701e-02
 -7.78900135e-03  1.34040356e-03 -3.18996900e-02  7.41165466e-02 -6.79800109e-01
  6.15300342e+00 -1.76011880e+01 -1.25626653e+00  4.65449084e-02 -6.60901258e-02
 -7.74229733e-02 -4.92342481e-01  5.22840273e-01 -1.11472159e+00  3.12879949e-01
 -9.89034167e-01  3.32770193e+00  2.06570568e-01  2.47066878e-03  2.26298215e-02
 -5.24917346e-02 -6.96682411e-03 -4.82725862e-01  2.57305976e-01 -2.47384921e-01
  1.33993305e-01  2.23108658e-02  5.07015379e-01  2.04721881e-01  2.47875010e-01
 -2.92243678e-01  3.86642273e-03  1.16114481e-01 -9.83813351e-02  6.84505905e-02
  8.63059757e-03 -1.68016617e-02  9.76421458e-03 -3.36930793e-03  5.50414335e-01
 -1.01538874e+00  6.08645403e-01 -9.00779007e-02 -1.42510735e-04 -1.08238236e-01
  1.69912089e-01 -9.96565913e-05  1.39346577e-01  9.35474567e-03 -2.63745667e-02
  4.04422416e-01 -1.75495454e+00 -1.08485935e+00 -7.91494825e-01 -3.15801020e-02
 -2.54745809e-02  2.17331670e-02  6.03106658e-01 -1.43283531e-01 -8.41065222e-01
  2.22960406e+00  1.50318951e+00 -1.61052964e+00  7.59266097e-02 -1.30058215e-01
 -3.72321174e-02 -1.55277369e-01 -5.18284109e-03 -6.76179787e-01  7.43745438e-01
 -2.69553998e-01  3.60845201e-01  2.16455057e-02 -4.37366602e-02  4.44832824e-01
  7.30413163e-01 -5.67547024e-01  9.77053426e-03 -1.01679180e-01  1.16251334e-01
 -1.76614874e-01  9.08141405e-03 -1.07847104e-02  3.97459619e-03 -4.51691102e-03
  4.09481676e-03 -1.26581210e-02  1.21448082e-01  6.10605747e-01  2.98260902e+00
  1.71402938e-01 -4.35671610e-02 -6.23604700e-02 -9.79021822e-03  5.34136687e-02
  6.19118017e-01 -5.84372421e-01 -2.46636842e+00 -1.66714106e+00 -5.38828848e-01
  1.67187287e-02  6.06836478e-02  8.42888830e-02 -1.75827821e-02 -4.30501068e-02
  5.27270230e-02  9.75591342e-02 -4.57316049e-01  5.90580101e-03  9.73971563e-02
 -1.67995469e-01  1.42887629e+00  8.55105560e-01  6.58224287e-02 -1.45154824e-01
  4.78694447e-02 -1.20114643e-01  5.40721926e-02  3.66759716e-02  2.83227182e-03
 -2.68308512e-03 -8.31676776e-04 -1.31132077e-01  2.62682479e-01 -1.79128956e-01
 -1.03191167e-02  3.51071239e-02  1.06625747e-01  1.99195015e-02 -6.38733050e-02
 -2.17656817e-01 -5.34768860e-03  1.10978572e-02 -5.49898772e-01  7.69001952e+00
  2.97785499e+01  1.58743352e+00  1.39460315e-02 -5.76929944e-03  5.28464841e-03
 -9.06881071e-02  1.45473044e-02  3.65827691e+00 -4.35518783e-01  1.70326763e-01
  1.61968159e+01  4.12282089e-02  1.19721821e-02  1.63045092e-02  3.06223731e-02
 -1.28106700e-02  1.10442888e+00 -3.59708559e-02 -7.64491133e-02 -6.61296547e-02
  3.23408696e-02  3.88831128e+00 -2.16284395e-01  2.99885587e-01  1.70938442e-02
 -2.59170857e-02  9.28541793e-02  1.14362012e-03  1.13206310e-03  9.14968822e-04
 -3.76911627e-03 -9.86006389e-04  2.74273467e-03 -8.55132806e-03  2.37772669e-02
 -1.63652720e-01  2.94506809e-01 -3.06650114e+01 -1.07673209e+01  1.02254478e-02
 -8.19650639e-03  5.03643634e-03 -7.45105595e-02  7.95172983e-02  1.34131869e+00
  5.30510278e-01 -3.16647341e-01  1.13006634e+01  4.65785275e-02 -1.60929474e-02
 -2.02938531e-03  3.24407957e-02 -2.08676175e-02 -7.78944230e-01  3.58351276e-02
 -6.47393572e-04 -7.44881211e-02  4.61073128e-02 -1.20935164e+00 -2.69623904e-01
 -4.65340411e-03  1.38411069e-01 -6.77060357e-02  5.25963982e-02  1.21981828e-02
  1.85076213e-03 -1.08674590e-02  3.67330133e-03  1.53254044e-03  2.24928512e-05
 -1.73626723e-01  4.32557942e-01 -4.65881197e-01 -9.02210350e-02 -2.41369965e-02
  1.96078073e-02  1.80471525e-01  5.48058299e-02 -1.96467259e-01  2.04707480e-04
 -6.83075598e-04 -1.02990502e+00  1.06236048e+01  5.53923158e-01 -2.65887495e+00
 -1.04261791e-02 -1.04827786e-02 -1.03733554e-02  9.10935716e-02  6.93540305e-02
  5.62290684e+00  1.03187899e+00  6.77217130e-01 -2.59772918e+00  1.46065736e-01
  1.93230430e-02  3.93702741e-02 -8.41643724e-03  8.39758169e-02  1.94012576e+00
 -8.61324260e-02 -1.45271729e-01  4.98273814e-03 -2.82455485e-01 -1.75163021e+00
  9.53948737e-01  9.01583979e-01  7.59172108e-02  7.70835976e-01  3.04107773e-01
  7.14059934e-03  1.40443986e-02  2.21163017e-03  1.43723831e-02  3.12452638e-03
 -2.75047213e-03 -2.96872227e-03  6.90657204e-03  3.79319745e-01 -5.19042834e+00
 -3.20082671e+00  2.03944449e+00 -3.87884724e-02 -2.76839117e-02 -4.52426092e-02
  2.93318553e-01  2.29772795e-01  3.11809950e+00 -1.47149220e+00 -1.11439216e+00
  4.52547392e+00 -3.14508786e-02  2.80328085e-04 -1.30644067e-02 -1.74014369e-02
 -3.62735228e-03 -8.59501602e-01  4.82542866e-03  4.05672748e-02  4.43347345e-02
  5.89564199e-02 -1.71009160e+00  2.68066036e-01  4.97630716e-02 -1.07622505e-01
 -3.36309513e-01  7.20809524e-02 -8.32651613e-03 -3.32605309e-03  5.03774083e-03
 -1.05467701e-02 -1.89972683e-03  6.24749486e-04  2.63368913e-01 -6.50289838e-01
  6.60406821e-01  1.21710284e-02 -6.89003614e-03 -3.27881409e-03 -1.02392162e-02
  2.78068473e-02  1.85900373e-01 -9.25090549e-03  2.37597271e-02 -6.87373277e-02
  1.50568212e-01  7.69955491e+00  3.60378658e+00 -1.37591003e-02  2.31526381e-02
  2.00444844e-02  5.25025813e-02 -2.49260042e-01 -8.06356470e-01  1.80779264e+00
 -9.82770156e-01  6.86071189e+00  3.90668037e-02 -1.24455626e-04 -2.29222504e-03
 -2.78617294e-03  2.82159162e-02 -5.64496869e-01 -1.31571089e-01 -8.20247781e-02
  7.52922439e-03 -6.74846098e-02  2.52686789e+00  1.30199232e+00 -7.75406040e-01
 -1.98522383e-02  5.09065006e-02 -8.55694808e-02 -4.64914070e-02 -5.28660259e-02
  6.42449792e-04  4.73626936e-03  2.91648224e-03 -5.18041241e-03 -6.93322416e-03
  1.84394455e-02 -2.78668479e-01  2.55539319e+00 -1.07941566e+01 -4.22785687e+00
 -7.44690876e-02  3.00216593e-02 -6.45759929e-03  5.64063872e-01 -1.58490501e-01
 -5.25454024e-01 -2.35762759e+00  1.39837877e+00  2.03795901e+00  9.06067216e-03
  2.46385127e-02 -4.04495445e-03  2.53356008e-03  3.51755661e-02  4.37037411e-02
 -1.23768018e-01 -7.46841230e-02 -7.92135885e-03 -7.81362088e-02 -2.25296074e-02
  6.30445978e-01 -3.78975411e-01  1.73602360e-02  1.21188135e-01  1.98019044e-02
  5.80481609e-03  3.97455055e-02  4.48778569e-04 -9.23053537e-03 -1.37181767e-03
 -3.50418820e-05  4.37804105e-02  8.78364295e-02 -3.35545727e-01  4.20276988e-02
  1.98964250e-01  2.04993902e-02 -7.00191626e-02 -4.17298994e-01 -2.58961583e-01
  1.79423366e-03 -8.44625542e-03  2.03526450e-01 -6.53124094e-01  4.53609702e+00
 -3.43198838e+00  1.13511589e-02  2.96180140e-03 -7.39048477e-03 -1.38745918e-01
  2.21347647e-01  2.66576253e-01  8.59418921e-02  3.31444535e-01  4.99625783e-01
 -8.43247160e-03  5.02803147e-02 -9.82807884e-02 -8.25526026e-03 -3.03336572e-03
  4.04930209e-02 -2.53575563e-01  5.30216019e-01  7.22507103e-02 -1.65294370e-02
  9.27732851e-02  5.37870769e-01 -7.19428295e-01 -4.46802671e-01  1.56425708e-01
 -1.33720962e-02 -1.73468676e-02  5.83893792e-02 -1.81901818e-03  6.29183632e-04
 -2.64177131e-03  7.98950914e-04 -2.19056579e-03  6.30220812e-03 -9.74935561e-02
  5.95521995e-01 -3.35373007e+00  1.95272254e+00 -2.18914408e-02  1.26926684e-02
 -3.14424668e-03  1.98980251e-01 -2.49782568e-01  3.34561429e-02 -3.34651761e-01
  6.29606469e-03  7.03876209e-01  1.44206174e-02 -2.55114401e-02  3.07050324e-02
  7.14607101e-02 -2.79989053e-02 -5.78188846e-02  1.60325512e-02  5.28619741e-02
 -1.92264163e-01  7.63521728e-02 -7.94458412e-02 -3.02326658e-01  5.73946076e-01
  4.69937186e-01 -1.83255800e-01  2.00357850e-03  2.98044164e-02 -5.82006513e-02
 -9.71641727e-03  5.03600359e-03  1.98056714e-03 -1.29888479e-03  1.87437544e-01
 -4.62172071e-01  4.71415826e-01  1.17364477e-01 -5.28033360e-02 -7.56529082e-02
 -2.28213694e-01  9.18841433e-02  2.63493324e-01 -1.21856435e-02  3.22971010e-02
 -8.36916832e-01  6.13096007e+00 -1.04856929e+00  3.43230605e-01  8.14642392e-03
  1.08249801e-02 -1.11856346e-02  1.15793699e-01 -2.06783364e-03  3.02681763e+00
 -1.31767819e-01 -7.04496548e-01 -7.58573083e-01  8.84805068e-03 -3.83099772e-02
 -3.17174968e-02 -4.98772814e-02  3.49674483e-02  1.37240091e+00  2.93378115e-01
  1.98259952e-01  2.10327961e-01 -1.32684521e-01 -1.04985758e+00 -4.62140885e-01
 -8.36790961e-01 -8.17559905e-01  5.11038202e-01  2.15832424e-01  5.81201536e-02
  2.43595471e-02 -7.53483469e-03 -9.67998504e-04  3.48840025e-03  1.59231775e-03
  2.03797994e-03 -4.08342553e-03  2.40674432e-01 -3.52618712e+00 -5.72873241e-01
 -3.45745069e-01  1.27582366e-02  3.20136731e-02 -3.31018152e-03 -2.13637235e-01
 -2.93255880e-01  1.76242975e+00  3.02091993e-01  1.07975819e+00  2.10858045e+00
 -2.27007375e-02 -5.25661025e-03 -8.89728093e-04  7.74511103e-02 -6.05662258e-02
 -4.19499117e-01  1.19808782e-01  4.90347395e-02 -2.29568411e-01  1.71272799e-01
 -5.70393070e-01  7.27145466e-02 -1.18336288e-01  6.41783945e-01 -4.33937659e-01
 -1.11355440e-02 -3.44544999e-02 -1.23539910e-02 -3.64136381e-03  7.11744966e-04
  6.45976017e-04  1.38179522e-03  2.64186919e-02 -1.02985236e-01  1.38050848e-01
 -2.06979226e-01  1.12790191e-01 -9.08731032e-02  4.10531500e-01 -2.42453960e-01
  2.42110592e-01  1.84364801e-02 -4.90678282e-02 -8.17939984e-02  4.27206991e+00
  1.48085979e-01 -4.05459401e+00 -3.20581965e-02  2.26777074e-02  1.01201905e-02
  2.71101722e-01 -3.13521596e-01  3.02081565e+00  1.24636983e+00 -2.16197603e+00
 -3.39686289e+00  1.31105596e-01 -4.50049396e-02  7.32124284e-02 -1.27048666e-03
 -6.69240547e-02  8.45716980e-01  1.86604998e-01 -3.04867023e-01 -5.09740855e-02
  1.99124642e-01 -1.44257199e+00  5.14510378e-01 -8.73192012e-01  4.36501605e-01
 -4.29409912e-01  1.10490350e-01  1.31617946e-02 -1.96426013e-02  1.10727251e-03
 -1.02223011e-02  3.18879690e-03 -2.31540374e-03 -1.83932199e-04 -1.83741373e-03
  3.05592108e-01 -2.85404794e+00  4.75820782e-01  3.06086537e+00 -2.86559085e-02
  6.36692870e-02 -4.27700512e-02  1.70149943e-01 -3.55932794e-01  1.62478743e+00
 -1.48139528e+00  2.53716985e+00  1.90769267e+00  1.53082804e-02  4.22954674e-02
 -4.98419461e-02 -8.02363769e-02 -2.81166020e-02 -5.73028025e-01 -6.07193819e-02
  5.42335955e-02  2.15485289e-01  3.47686887e-02 -8.54190962e-01  7.73556361e-01
 -1.13443350e+00 -5.12659558e-01  7.02606893e-02  7.21836564e-02 -4.16364585e-02
  5.37159818e-02  1.28983935e-02  1.35195015e-02 -1.51325829e-03  1.58101546e-03
 -3.16430636e-02 -7.76900284e-02  2.87073432e-01 -1.32350092e-01  1.01908885e-01
 -1.17582490e-01  2.72984398e-01 -2.17215869e-01  4.19366104e-01
Total SCF Density                          R   N=         3486
  4.57373899e-01  6.13926149e-01  8.45900612e-01 -5.21974194e-02 -1.29153406e-01
  2.86946394e-01 -9.84975487e-02 -2.07711848e-01  2.84709113e-01  4.72196298e-01
 -2.20543496e-02 -4.95148538e-02  9.19762034e-02  1.37562473e-01  7.47788054e-02
 -3.26109622e-03 -5.63513582e-03 -3.02413702e-04  8.05940843e-03  2.39083370e-03
  9.49422284e-04  4.21720646e-06  1.05227296e-05  4.95683674e-05 -9.06262449e-05
  5.44874686e-05  5.31817450e-06  1.80095700e-01 -3.60221547e-06 -1.36722892e-05
 -3.21676670e-05  5.08371436e-05 -1.36384182e-04 -2.15189226e-05 -4.33752544e-04
  1.80399343e-01 -1.04155411e-02 -1.90998307e-02  3.22687837e-02 -4.55186622e-02
 -2.77346811e-02  8.27306767e-04 -2.91796611e-05  4.12887821e-05  2.24322118e-01
  1.01781059e-05  4.03844529e-05 -1.66023204e-04 -8.50815925e-05 -6.23163309e-05
  2.83498859e-05  1.51958694e-01 -2.93396232e-05 -3.77269402e-07  1.36689841e-01
 -1.30801125e-05 -4.09905471e-05  1.59125752e-04  2.06769258e-04 -7.03686572e-06
 -3.28262070e-05 -2.10146399e-05  1.51953900e-01 -1.20388858e-05  1.83506989e-04
  1.36614026e-01 -7.62996978e-04  3.24059103e-03 -2.56205747e-03 -3.93614149e-02
 -2.05010641e-02 -3.75127252e-04  4.38341579e-05 -7.13930854e-05  1.55043933e-01
 -1.08499241e-04  1.93314959e-04  1.30314716e-01 -2.07310024e-06 -4.37190197e-06
 -3.00749804e-05 -4.42734657e-05  5.68110147e-06  2.38021891e-05  5.50128298e-02
  5.08343271e-05  9.37828619e-08  4.87420826e-02 -6.59340463e-05 -7.02336863e-05
  1.82307841e-02  6.60944953e-06  1.72792325e-05  1.76601902e-05 -8.28776633e-05
 -4.71822338e-05 -1.96664803e-05  5.09563648e-05  5.49736087e-02  1.06492598e-05
 -5.87014753e-05  4.87809329e-02  3.46774963e-05 -2.62526980e-05  1.82428611e-02
 -2.15047444e-03 -2.41616944e-03  6.57277264e-04 -2.36157311e-03  1.47041312e-02
  1.20244821e-03  2.76991296e-05 -4.16722516e-05  3.67473064e-02 -5.09254897e-05
  6.35693477e-05  3.03528017e-02  1.00946931e-05  4.64647613e-06  1.81606615e-02
 -4.16100847e-03 -8.74933266e-03  1.66228035e-02  1.25277100e-02  3.94855465e-03
  1.17910434e-04  5.52456068e-06 -3.42247233e-06  1.07595130e-02 -5.27247669e-06
  8.09401083e-06  5.26677440e-03 -7.94624004e-06  5.31684764e-06  1.58954998e-03
  2.12546602e-03 -5.98789422e-07  1.15852653e-05 -7.42194853e-06 -4.17715880e-05
 -1.30589556e-05 -3.23675770e-07  1.25589185e-02  8.92199140e-06 -7.74991826e-06
  1.05046427e-02  3.27099957e-05  6.04234624e-07  4.03268353e-03  2.14680467e-05
 -4.53650123e-06 -1.55981202e-06  1.52787845e-03  9.66385954e-07 -1.31528993e-05
  3.83828495e-06  6.47213862e-05  2.51657292e-05  5.13011702e-06  1.04726397e-05
  1.25460903e-02  1.34504039e-05  2.71186566e-05  1.05028144e-02  5.83854881e-06
  1.66259799e-05  4.02288067e-03  1.70027037e-05  4.47695555e-06  3.18781815e-05
  1.51628624e-03 -4.50770039e-07 -2.07978127e-06 -2.11298963e-05  7.10018350e-05
 -1.31033475e-05  4.02441548e-06 -4.77657790e-06  4.70719522e-06  8.66240604e-06
  2.67099293e-06 -3.45778777e-07  3.61616265e-05 -8.40062707e-07 -7.59847849e-07
  9.91277044e-07  3.79191108e-06 -1.22000523e-06  1.91400298e-06  4.29221595e-04
 -1.12661207e-06 -1.76238178e-06 -4.60861336e-05  1.86031867e-04  4.35873051e-05
  9.24764038e-06 -5.55615595e-06  1.39054554e-05  2.19134890e-05  1.12859470e-05
 -1.89958244e-06  9.93895454e-05  6.12313246e-07  2.81444269e-06  3.73371011e-05
  9.02325419e-06 -1.06110989e-06  5.02146976e-06 -1.05622318e-05  4.01494353e-04
 -4.62413791e-03 -9.30583968e-03  1.70470843e-02  2.65390492e-02  8.18137132e-03
  2.69135541e-04  1.90886288e-05 -2.18243557e-05  5.75762703e-04  3.04081091e-07
  3.73094170e-05  2.37919243e-03 -8.92803830e-06 -2.68079863e-06  7.79521469e-04
  1.47996847e-03 -2.90805309e-06  7.02438365e-06  8.37011131e-06  3.03026458e-05
  2.90608960e-03  2.30669393e-06  1.22725249e-05 -3.45662953e-05  2.61343234e-06
 -8.48435736e-06  1.19429744e-05  1.53314327e-02 -4.19794659e-05  8.56355481e-06
  1.37201863e-02  7.32698999e-05  1.61927652e-05  4.99910167e-03  2.26796261e-05
  9.20033724e-06  1.30679943e-06  1.45863617e-03  3.92713441e-05  2.95967148e-06
  1.39598642e-06  7.92790672e-06  1.67435034e-03 -3.36358348e-06 -1.39022577e-05
  1.93873826e-05  6.08889467e-05  4.64107201e-05 -4.54557124e-07 -3.70983084e-05
  1.53467480e-02 -1.66466730e-05  6.29920460e-05  1.36994605e-02  2.07119158e-05
  2.05183013e-05  4.99074867e-03  2.94254106e-05  1.00944191e-06  3.81196889e-05
  1.44285558e-03  3.78938862e-06  9.58727102e-06  9.29216840e-06  4.73633530e-05
  1.64798646e-03 -1.91086577e-06 -9.78734927e-06  9.42312077e-06  7.11673709e-05
  3.08363991e-05 -1.01863424e-06  1.56225971e-05 -1.95505644e-06  1.06691512e-06
  1.57747737e-05 -1.09259147e-05  2.48718996e-05  4.46751193e-06 -3.01512071e-07
  9.24384526e-06  7.06540815e-07  4.03896695e-07  3.74955353e-06  3.76408485e-04
 -8.60375890e-06  3.25647524e-06  2.83312616e-06  3.16880739e-06  4.08556568e-04
 -3.82001527e-06 -1.54281519e-05  2.01804595e-05  1.47337803e-04  3.78175764e-05
  4.91928974e-06 -3.31739215e-07 -1.34761112e-05  1.59130520e-05  1.75526979e-05
 -3.19955536e-05  4.63461826e-05  5.27397063e-06 -1.10360858e-05  1.90551927e-05
  1.62632429e-06 -2.29364849e-06  8.63511541e-06 -1.15124542e-05  3.49550425e-04
  7.76426999e-06  1.75627397e-06  5.94056073e-06 -1.17473084e-05  3.74697151e-04
 -1.04283206e-03 -2.14354027e-03  3.61055673e-03  6.45225724e-03  6.55845069e-03
  3.02841996e-04  1.38440104e-05 -1.75182918e-05 -1.24327907e-03 -2.92659632e-06
  7.51597457e-06 -6.92008504e-04  7.25474165e-06 -4.89743910e-06  2.64104203e-03
  1.94371055e-04  3.01700867e-07  3.66264915e-06 -1.03971549e-07  6.73757477e-06
  4.31775024e-04  3.01235831e-06  8.08901164e-06  1.41131914e-06  5.81447295e-06
  8.07695553e-04  1.99469281e-06  5.85873302e-06 -1.86929195e-05 -6.25258377e-05
 -1.40105456e-05  9.77093053e-06  1.80442695e-03  2.19574300e-05  9.81335265e-06
  1.75044509e-03 -9.10239132e-05 -2.89248641e-05  8.42575639e-04 -2.60024829e-05
  3.34527856e-06 -5.73347918e-06  1.64586020e-04  1.23892813e-06 -3.82420562e-07
 -1.00888268e-06 -8.79525976e-06  1.70019990e-04  5.83460064e-06 -1.53676565e-06
 -8.80898466e-07  1.48490233e-06  1.35728852e-04 -8.49018754e-07 -3.24412987e-06
  1.42107674e-05  1.68916703e-05  1.47097471e-05 -4.30028346e-06  1.91747703e-05
  1.78848892e-03 -6.09450327e-06 -8.60325822e-05  1.80378270e-03  1.43557307e-05
 -2.53874591e-05  8.55700833e-04  8.27104928e-06  4.75456305e-06  4.34378268e-06
  1.63728497e-04  3.29288820e-07  1.36421288e-06  4.52657183e-06  7.33676218e-06
  1.71364572e-04 -1.35451635e-06  8.31860235e-07  2.66184531e-06 -1.23111529e-05
  1.40635757e-04 -6.14572605e-07 -9.49361154e-07  1.08437422e-06 -3.64948887e-05
 -1.91832661e-05  4.84803730e-06  8.01030314e-06  3.90988999e-06 -3.39856146e-06
  9.35117851e-06 -6.56105283e-07 -2.61013194e-05  4.03736746e-06  2.32281490e-06
 -3.31518399e-06 -1.39090142e-06  3.89954036e-07  1.93244460e-07 -2.77238656e-05
 -2.80061792e-07 -4.51890186e-06  1.11405689e-06 -1.59606500e-06 -2.50598827e-05
  8.61996857e-07 -1.07678330e-07  4.33223065e-07 -1.37494739e-06  5.37905215e-06
 -1.78838593e-06 -3.90241516e-06  3.27414734e-06 -2.85813292e-05 -2.21839488e-05
  3.00268663e-06  3.84241586e-06 -1.34769635e-05 -9.99176327e-06  2.77744969e-06
 -1.36708180e-05 -3.25740936e-05  1.20071814e-06 -5.28512636e-06 -1.09204187e-05
 -1.14055915e-06 -8.84655140e-08 -1.63703794e-06  8.10402352e-09 -2.53279134e-05
 -4.62289452e-06 -7.27594253e-07 -3.10404201e-06  2.45066919e-06 -2.38892666e-05
 -3.80706802e-07 -2.85436394e-07 -1.27931165e-06  1.91275526e-06  5.65876258e-06
 -8.16427978e-04 -1.75725259e-03  4.15775931e-03  6.19102090e-04  4.04976914e-04
  4.27611923e-06  5.92141871e-07  5.60614801e-06  6.01361418e-03  2.29246877e-06
  2.28633146e-06  3.08402390e-03 -6.64685375e-06  4.92737043e-06  9.30644553e-04
  5.85370789e-04 -7.42263218e-07  4.97949994e-07 -3.23924502e-06 -6.53110259e-06
  1.28199214e-04  2.48132328e-06  3.46463596e-07  4.44555875e-07 -6.73641385e-06
  2.52034928e-05 -4.11315723e-06  3.32750205e-06 -9.42225062e-07  3.82925308e-07
  3.57824999e-04 -7.42906275e-07  2.26553711e-06  3.50157916e-06 -8.01745964e-06
  1.60186685e-05  1.81325785e-06  5.59822716e-03  3.53818637e-05 -9.78835997e-06
  4.66609364e-03 -1.83514209e-05  5.84803594e-06  1.76283701e-03 -4.61112834e-06
  9.26408847e-06 -4.36639427e-06  4.92990506e-04  1.34136736e-06 -7.18451376e-07
  2.34061922e-06  3.07785321e-06  5.05932512e-04  1.42894005e-06 -1.45867839e-06
 -1.25018068e-06  2.70584317e-06  9.06983043e-05 -6.39931741e-06  4.59685793e-07
 -2.42291326e-07  2.80891761e-06  2.58391582e-04  8.04749992e-07 -7.02591273e-06
  1.05436591e-05  3.03863702e-05  2.08743276e-05  4.04833550e-06  3.68467034e-05
  5.57865430e-03  1.57387891e-05 -1.92515875e-05  4.67302357e-03  1.38550471e-05
 -7.14192915e-06  1.76654039e-03  1.88143754e-05  2.78427216e-06  2.98260211e-06
  4.91640074e-04  5.87249137e-07  6.22754336e-07  8.37156551e-06  2.81167813e-06
  5.03470120e-04 -9.73875019e-07  1.24674466e-06  4.83089326e-06 -8.42822651e-06
  9.49750694e-05 -8.17333897e-07 -8.12155291e-07  6.72357866e-07 -2.39259655e-06
  2.61830278e-04  1.78997833e-06 -8.64413100e-07 -9.84243120e-06 -2.78525914e-05
 -1.08992930e-05  2.67982587e-07 -4.06845420e-06  1.87442721e-06  1.34003797e-06
 -8.96731079e-07 -1.37904086e-06 -2.26535400e-05  1.39140663e-06  2.90123280e-07
 -6.69167663e-06 -2.41591075e-06 -1.58340040e-06  2.60377638e-07  1.04559868e-04
 -3.77172664e-06 -8.07385003e-06 -2.53872504e-06 -4.79859115e-07  1.29764285e-04
 -4.09857768e-07 -1.47720012e-06  1.54512172e-06 -6.55091805e-07 -5.67288861e-06
  7.09688941e-07  2.96476909e-07  8.28008997e-08  7.46886245e-07  1.06928606e-04
  4.67808894e-06 -8.73394732e-07 -2.30209943e-05 -3.01288322e-06 -2.62449012e-05
  3.48219973e-07 -3.86546404e-06  9.91713353e-06  3.05559677e-06 -2.23793427e-06
  7.11347488e-07 -8.61687836e-06 -1.13247701e-06  1.81741408e-06 -1.34391653e-05
 -4.22416050e-06 -3.13719268e-06  3.59484968e-06  5.13512339e-07  1.00138543e-04
 -1.36083628e-05  4.68464546e-08  1.49779289e-06  1.03171804e-07  1.28196056e-04
 -3.75647762e-06 -8.54128863e-08  3.87401107e-07  2.43403937e-07 -5.78536389e-06
  1.80692677e-06 -2.69194954e-06  4.24876545e-07  1.45591369e-06  1.11304195e-04
 -6.28105338e-07 -5.45361055e-06 -6.11111476e-06  1.48295964e-04 -3.82027231e-06
  3.95685703e-06 -1.28065341e-04  1.02195315e-04 -1.05496939e-06 -7.88878783e-05
  8.43869749e-05  9.65812655e-05 -2.31862157e-05  2.99074809e-05  1.47717824e-06
  1.96998086e-05 -5.07995014e-06  4.06815338e-06  4.32141174e-07  3.23882892e-07
  1.39761851e-05 -2.22103602e-06  8.42471564e-06 -3.27351031e-07 -6.00799031e-07
 -2.34681390e-06 -1.47642711e-07  6.55496490e-06 -3.27099798e-08 -2.66870186e-07
  1.25536653e-05 -5.07430559e-06 -1.88862733e-06  1.22784800e-06  3.42752878e-06
  9.20829050e-05  8.54412277e-07  8.16625710e-06 -9.84872806e-06 -1.40955398e-04
  7.63892525e-07 -2.46533772e-06  7.32592662e-05  1.15444308e-04 -1.08085185e-05
  3.03441474e-05  6.53357797e-05 -9.67979533e-05  5.73568082e-06  1.82026661e-05
 -6.21207700e-06 -1.56221944e-05 -2.26068411e-06  1.87674206e-06 -2.37444143e-07
 -1.43504603e-06 -2.09915680e-05 -2.88098702e-06 -1.72160172e-06  4.64476305e-07
 -6.29313777e-08  1.81242722e-06 -3.53327686e-06 -1.11953978e-06 -5.73526765e-08
  1.49476274e-07 -3.71561403e-06  3.30410000e-06  6.30597433e-06 -6.36843284e-07
 -1.43775691e-06 -2.15618424e-05  6.49615324e-05  3.83932521e-03  8.22446664e-03
 -1.14163429e-02  1.27161744e-02  8.32021929e-04  1.32878250e-04 -2.06813769e-06
  1.21225484e-06 -2.29198703e-02 -7.76863968e-06  1.11000857e-05 -4.90783142e-03
  1.25208073e-07  2.91517544e-06 -3.70415648e-03 -2.62798532e-03 -9.66149310e-07
  1.35552602e-06 -4.43704141e-07 -1.29399582e-06  4.85455883e-04 -2.80591834e-06
  4.78279678e-06  2.43940978e-06  5.63529939e-06 -7.37312898e-04 -4.61890895e-07
  9.75139291e-07 -1.70149003e-07 -7.32822456e-08 -8.74827099e-04 -3.13769427e-07
  6.67216107e-07 -1.02575392e-07 -3.02313038e-07  1.01192450e-06 -3.71250989e-07
  4.25675282e-01  8.88171567e-03  1.87338774e-02 -2.59393340e-02  2.65884429e-02
  7.87517974e-03  6.18921040e-04 -1.11689202e-05  6.42347084e-06 -5.36793689e-02
 -1.08305730e-05  1.99997667e-05 -1.45014562e-02  6.59458747e-06  6.43663361e-07
 -5.18387896e-03 -6.08928588e-03  2.64034793e-06 -1.99319235e-06 -1.19944350e-06
 -1.25913147e-07  1.70423388e-04 -8.03769701e-07  5.88864859e-06  2.67148837e-06
  1.26844068e-05 -7.89013246e-04  3.24609736e-06 -1.67839991e-06  1.94914746e-07
 -3.68856583e-07 -1.93037836e-03 -3.06810341e-06  3.13875592e-06  5.05481073e-06
  1.86271508e-06  1.22707871e-06  1.48163372e-06  6.14700605e-01  9.10498217e-01
 -1.46108109e-02 -2.92336214e-02  3.94590084e-02 -2.33630371e-02 -6.46279482e-02
 -2.43328988e-03  1.41185327e-05 -1.93490430e-05  8.41072472e-02 -1.76985727e-05
  1.58233489e-05  3.59605772e-02 -9.24772656e-06 -6.56191265e-06 -2.24721300e-02
  9.27858966e-03 -1.24794201e-05  1.02656007e-05  2.12664144e-05  3.33215020e-05
  4.38632333e-03 -1.06497294e-05 -1.12704898e-06 -1.54863114e-05 -3.36827606e-05
 -7.27714622e-03 -2.43565956e-06 -1.98777637e-06 -3.61609570e-07  4.04974538e-06
  1.94008801e-03  3.83155152e-06 -1.09324943e-06 -2.28986802e-05 -2.09007135e-05
  1.67372753e-05 -2.76166492e-05 -5.71340404e-02 -1.48707815e-01  3.06693726e-01
  8.54765656e-03  1.56446634e-02 -4.12093021e-02 -1.65767237e-01 -6.76674221e-02
 -3.76868900e-03  1.74866035e-05 -5.81562326e-06  3.72606702e-02  1.41204066e-04
 -2.77246127e-04 -2.56409721e-02  5.16076723e-05 -1.93513672e-05 -1.69316047e-02
  3.09563876e-03  2.23632617e-05 -3.09420735e-05 -6.26038936e-05 -1.21437367e-04
 -1.08865651e-02  1.21399140e-05 -4.74764426e-05 -1.57664957e-05 -6.83996606e-05
 -3.03060603e-03  2.88664362e-05 -1.26899889e-05  1.61319766e-05  1.12906260e-05
  9.93816625e-04 -1.38896529e-06 -2.62490912e-05  4.61824399e-05  3.18130666e-05
 -1.30764628e-04  1.39568495e-04 -1.15141571e-01 -2.59758059e-01  3.22573377e-01
  5.83828091e-01  2.68717269e-02  5.48004842e-02 -8.08764965e-02 -1.52358883e-01
 -9.59455547e-02 -4.92749771e-03 -6.05283667e-05  1.56706961e-04 -3.36698615e-02
  1.94924205e-04 -1.81077850e-04 -4.54777405e-02  3.28536422e-05  2.32246780e-05
 -4.47557939e-02 -3.51096012e-03  2.89173359e-05 -5.56031353e-05 -7.92774944e-06
 -1.25621763e-04 -8.15414281e-03  2.72791677e-05 -9.95834545e-05 -6.31185416e-05
 -7.84607818e-05 -9.39514775e-03  3.97407165e-05 -3.43486328e-05  3.90372554e-05
  4.32784184e-05 -1.42520959e-03 -1.28054225e-05 -3.84168524e-05  2.53873716e-05
  4.26305656e-05 -2.81119788e-05  3.94421057e-05 -3.25980183e-02 -8.48632943e-02
  1.98065085e-01  2.72210416e-01  2.37969916e-01  6.37497492e-03  1.22649199e-02
 -1.26484692e-02 -2.10060164e-02 -1.00619341e-02 -1.35691492e-03 -3.66218629e-05
  5.27851493e-05 -1.75816213e-02 -4.06129181e-05  5.64866618e-05 -1.29021259e-02
 -2.96902859e-05  2.94688730e-05 -7.27108591e-03 -1.26328007e-03 -1.25951894e-07
 -7.35077205e-06 -6.05316537e-07 -1.34551736e-05 -1.07280138e-03 -1.47900944e-05
  1.13443563e-06 -3.71606572e-06 -6.36995712e-06 -9.97741207e-04 -8.00580791e-06
  7.80760079e-06 -1.41181904e-06  8.84090418e-07 -5.89793472e-04 -6.10801416e-06
 -3.93512208e-06  1.17024545e-06  1.26415882e-06 -7.09603343e-06  5.00122473e-06
 -3.20088580e-03 -8.35381127e-03  1.77990389e-02  3.26082898e-02  3.07552592e-02
  5.68598180e-03  5.65328264e-06  2.89025413e-05  7.99727772e-06 -1.36276308e-04
 -1.54271774e-05  4.42626633e-06  1.78038180e-01 -2.12068169e-04  1.54133331e-05
  1.58825721e-01  2.66723806e-04  6.78952376e-05  5.86794891e-02 -6.62105936e-06
  1.07910898e-06  5.87492559e-07  1.35059625e-02 -6.98873578e-06 -4.76535358e-06
 -6.85366997e-06  5.12202367e-06  1.68895064e-02 -3.14543660e-05  1.82058208e-05
  3.88947132e-06  5.02299121e-06  1.81525206e-03 -2.90819741e-05  8.73158064e-06
  3.49561348e-06  3.41290564e-06  5.81577697e-03  1.86063339e-05 -6.08317962e-06
 -7.51581293e-06 -2.55095646e-05  4.66134205e-05 -2.98529001e-06 -1.40520462e-05
  2.58413097e-05  9.18607559e-06 -1.37234971e-07 -4.02792033e-05  2.14532965e-01
 -5.08339806e-06 -3.26735392e-05 -4.03719850e-05  1.91728566e-04 -1.14669712e-04
 -1.40622288e-05 -2.01594211e-04  1.78177895e-01 -6.80861601e-07  2.62504401e-04
  1.58650224e-01 -7.05816207e-05 -1.08315306e-05  5.86734226e-02 -3.05605800e-05
  5.38786329e-07 -3.35576211e-06  1.35086597e-02  5.64895377e-06  1.92932180e-05
 -4.66964392e-06 -2.84924790e-05  1.69037529e-02 -4.11684184e-06 -1.33502032e-05
 -1.17813317e-05 -2.93135577e-05  1.82868840e-03  2.97587109e-06 -1.55351199e-05
 -5.49212017e-07  1.64127399e-05  5.80346178e-03  8.77715070e-06  1.12645844e-05
  2.81004079e-06  3.91777395e-05  5.73725916e-06  2.37014558e-05 -3.82401734e-05
 -5.78398808e-05  1.15016759e-04  5.84400960e-05 -4.78009358e-05  2.14558139e-01
  4.46002551e-02  9.93759565e-02 -1.60962568e-01 -1.63828226e-01 -4.97324681e-02
 -3.05977616e-03 -7.66547323e-06  1.94360109e-06 -1.61980237e-01  3.53375232e-05
 -4.64130799e-05 -1.14355682e-01 -3.61279457e-06 -3.65073659e-06 -3.61866064e-02
 -1.33654504e-02 -4.33415031e-07 -2.59588590e-07 -7.01725902e-06 -1.40441778e-05
 -8.35819520e-03  2.71395734e-06 -1.86693472e-06 -7.30772639e-06 -1.56423604e-05
 -2.54170681e-03 -1.56773310e-06  3.38417122e-07  4.13667586e-06  3.88102235e-06
 -5.47599425e-03  6.72294892e-07 -2.35681233e-06 -1.15739349e-06 -1.16587602e-05
 -1.33950424e-07  1.09512069e-05 -1.53267409e-02 -3.52216813e-02  4.46400098e-02
  1.73489643e-01  1.73134996e-01  3.23102007e-02 -3.41202634e-05  2.49306741e-05
  2.94353111e-01  9.26010413e-06  5.49419870e-06 -6.17870586e-05 -7.72039256e-05
 -3.65372157e-05  2.88241770e-05  1.60332505e-01  2.56167309e-04  8.19168063e-05
  1.42716418e-01 -9.74133140e-05 -2.83083983e-05  5.43652475e-02 -3.53815140e-05
 -4.70561216e-06 -1.58634377e-05  1.19959729e-02  4.95297215e-05 -8.42578887e-06
 -8.51950168e-06 -1.71025094e-05  1.48553835e-02  2.32771862e-05  1.44363477e-05
  9.22392267e-06  3.50463059e-06  2.46105569e-03 -5.54227624e-05  8.46196592e-06
  3.73409853e-06 -1.90761689e-05  5.18696650e-03 -1.34276254e-05  1.79754416e-06
 -1.55650488e-06 -3.58574909e-05  1.23944855e-05  6.53479357e-07  1.20061832e-05
  1.99119040e-05  2.61158085e-05  2.92066177e-05 -5.76673845e-05  1.83027273e-01
 -1.17043466e-05 -2.60295100e-05  1.67022859e-01 -1.04612266e-05 -5.73188521e-06
  8.38864754e-05 -3.46429633e-05 -1.11218772e-04 -5.23312935e-05  2.32995728e-04
  1.60182911e-01 -7.86098898e-05 -6.83559163e-05  1.42715961e-01 -4.37937400e-05
 -3.46855781e-05  5.43708206e-02 -5.18333409e-05  1.84768233e-05  5.29220806e-05
  1.19536947e-02 -2.27568812e-06  2.58022630e-06 -6.43477238e-06  1.70836560e-05
  1.48296505e-02 -4.17341139e-06 -3.17254901e-05 -1.80230019e-05 -5.22779721e-05
  2.48316155e-03  4.83221241e-06 -1.16934742e-05  1.60920610e-05 -4.90113224e-06
  5.19252909e-03  3.22830991e-06  7.46208355e-06  4.71246343e-05  3.25552345e-05
 -6.21142784e-08 -1.23903735e-05 -3.00284460e-05  1.93199030e-05  1.63901100e-04
  8.99006566e-05 -1.21132333e-05  1.83026770e-01  9.89878298e-06 -1.95156686e-05
  1.67055928e-01  2.62817364e-02  6.32991718e-02 -9.76032969e-02 -6.54014718e-02
 -1.99693539e-02 -2.37346957e-03  3.96043848e-05 -4.47963082e-05 -1.07515610e-01
 -8.25690813e-05  1.42758586e-04 -5.54484032e-02 -6.49505435e-05  2.62917414e-05
 -2.01881910e-02 -6.97131599e-03 -2.10151148e-05  2.62693492e-05  4.71241795e-05
  1.25168555e-04  3.86074872e-03 -1.06610753e-05  2.68565396e-05  3.10130613e-05
  8.18928784e-05 -6.79870356e-04 -3.76223795e-05  2.60022639e-05 -1.27514575e-05
 -1.92621138e-05 -4.23414179e-03 -3.87640532e-06  2.35596806e-05 -2.15278744e-05
 -2.00924805e-05  7.77162478e-05 -8.44743429e-05 -8.83230914e-03 -2.53530316e-02
  5.33647038e-02  9.42179442e-02  1.05085835e-01  2.22024650e-02 -2.39399237e-05
  1.23407219e-05  1.98699340e-01 -7.43495422e-05  3.89803600e-05  1.85669769e-01
 -3.73128375e-06 -2.58249102e-05  6.48593484e-05  2.00808106e-04  1.06449315e-04
 -2.48851659e-06  8.30109234e-02 -3.00034786e-04  5.33973684e-05  7.33178773e-02
  2.82824541e-04  1.52570405e-04  2.61992347e-02  3.94734372e-05  6.50726584e-05
  2.98518559e-05  5.66509678e-03 -2.01590604e-05  4.61007498e-07  7.89243613e-06
  3.86137025e-05  7.45372295e-03 -5.81419811e-05  1.54440517e-05  1.64193631e-05
  1.25234960e-05  5.53252485e-04  4.16912198e-05  2.45847362e-06  2.63681234e-06
  1.71147243e-05  2.38813718e-03  4.06752362e-05 -7.91704499e-06 -8.06726133e-07
 -3.57108440e-05  3.27045380e-05  5.47736941e-06 -9.19576826e-06 -6.78619934e-06
 -1.13353123e-04 -2.95349978e-04 -2.79961724e-05  9.13796788e-02 -1.06255238e-04
 -6.09943448e-05  7.92904487e-02 -1.53655987e-05  1.13525881e-04  4.25443707e-02
  6.21865276e-06  3.23366497e-05 -2.99202481e-05 -1.40438200e-04 -1.79096666e-04
 -1.83407528e-05 -2.87521442e-04  8.32021049e-02 -5.13454038e-05  2.43352523e-04
  7.31586951e-02 -8.39005034e-05  3.16434965e-05  2.61834761e-02 -8.93207175e-05
 -2.48218235e-05 -3.68207010e-05  5.66958006e-03  2.80183134e-06 -1.28137516e-05
 -2.14405292e-05 -7.33944149e-05  7.46400285e-03 -9.69653429e-06 -3.35723954e-05
 -2.38668715e-05  4.20165962e-05  5.38269952e-04  3.63453287e-06 -3.80289000e-06
 -1.20659713e-05  3.07278942e-05  2.37097918e-03  9.51710114e-07 -1.03766513e-06
 -1.90595400e-06  3.62796731e-05 -1.12440286e-05 -5.58230329e-06  3.06220973e-05
  7.41931787e-05  3.28941311e-04  4.11708190e-05 -1.06860950e-04  9.14602498e-02
  6.11284215e-05  3.62248178e-06  7.93482304e-02 -6.59236040e-05 -4.03920335e-04
  4.27464358e-02  3.73232054e-03  1.23141193e-02 -3.39807517e-02 -1.41839182e-02
 -4.06501799e-04  1.40692097e-04 -1.50558449e-05 -1.67397220e-05 -3.66981125e-02
 -3.69158447e-05  5.53140411e-06 -2.17622365e-02 -3.04238248e-05 -2.19386660e-05
 -3.69478104e-03 -2.23296499e-03 -1.30051536e-05  2.03391907e-05  1.12607646e-05
  6.18515447e-05  1.22340667e-03 -3.30581623e-06  2.17894152e-05  2.21105094e-05
  3.55150011e-05  8.03741273e-04 -1.91448069e-05  6.23930548e-07 -2.03246315e-05
 -2.27498678e-05 -1.47552387e-03  3.99403053e-06  7.40468695e-06 -2.36803114e-06
  1.15135438e-06  2.50129648e-05 -1.91297234e-05 -1.10211571e-02 -2.54193334e-02
  2.67624262e-02  6.32669442e-02  3.57989544e-02  7.19519199e-03 -4.90928451e-05
  8.48916674e-06  7.16812017e-02 -3.90987147e-05 -3.12369862e-05  6.56480302e-02
  3.70596331e-05 -1.29642582e-05  2.84085070e-02 -2.39063738e-03 -5.38170869e-03
  9.77573482e-03  6.73603685e-03  2.74382220e-04 -1.90719155e-04  4.79695639e-06
  8.43857806e-07  9.72079627e-03 -1.08923100e-05  6.63688449e-06  6.49402046e-03
 -6.77599263e-06  4.92215957e-06  6.47691994e-04  9.43350532e-04  2.17974172e-06
  1.72085929e-06  2.38818249e-06  2.92501193e-06  4.94730210e-04 -1.54555357e-06
  1.28157186e-06  3.85252201e-06  1.02435561e-06 -1.57959135e-04 -4.01218511e-06
  2.82525986e-06 -6.46846488e-07  9.65352994e-08  3.85215822e-04  9.79855158e-07
  3.53001950e-06 -3.80655528e-06 -5.89122129e-06 -1.02428713e-05  3.72591824e-06
 -2.59615665e-04 -9.51410485e-04  3.21014967e-03 -3.24906195e-03 -3.61423188e-03
 -7.39109701e-04  5.47612144e-06 -5.46997960e-06 -1.32148794e-02 -1.51690260e-05
  1.41371083e-05 -8.46466180e-03  2.26461684e-05 -1.51901241e-05 -3.64885633e-03
  1.52964057e-03  8.94847265e-07  9.40151678e-07 -1.94998842e-05 -1.56278282e-05
 -7.55955715e-05 -1.87471670e-06 -9.92138686e-03 -5.94791495e-05  5.82232568e-06
 -8.46868261e-03  9.80978138e-06 -2.68068946e-05 -3.08857235e-03  1.05771609e-05
 -4.77599682e-05  9.27891667e-07 -9.16585484e-04  1.60154833e-05  2.56722044e-06
 -1.15998445e-06 -2.01623822e-06 -9.65480097e-04  1.52572447e-05  2.77544913e-06
  4.82536761e-06 -1.25029189e-05 -9.02677323e-05  4.95819476e-06 -6.38357166e-07
 -4.84787500e-07 -3.54711713e-06 -4.14038787e-04  1.01471118e-06  1.62325482e-06
  3.89633516e-06  3.53831780e-06 -2.19871888e-06 -1.22042983e-06  1.98351429e-05
 -1.27562378e-05 -2.01504800e-05  1.35434299e-04  1.06554895e-05 -1.03732931e-02
 -3.85262813e-05  3.21929356e-06 -9.09307722e-03  1.33791942e-05 -1.49173672e-05
 -4.66019002e-03  9.19518239e-07 -1.78863256e-05  8.96861267e-07  1.24052314e-03
 -2.12148002e-06  1.85744092e-06  3.73042275e-05 -4.83510759e-05  8.25994117e-05
 -4.96752855e-06 -6.12271045e-05 -9.89005696e-03 -1.56741015e-05  1.49095261e-05
 -8.45767456e-03  6.51612711e-06  1.28203932e-05 -3.09703441e-03  4.43781439e-05
 -3.67025698e-06  1.75504898e-05 -9.19030960e-04 -1.69620955e-06  2.83015844e-07
 -4.55854418e-06  1.69061956e-05 -9.64291911e-04 -8.35771930e-07  1.08962676e-07
  1.17408655e-05  5.55000224e-06 -9.50922101e-05 -4.87524944e-07  5.90401848e-07
  1.77091175e-06  2.99148318e-06 -4.15831978e-04 -3.33319639e-06 -3.30959332e-06
 -5.24137588e-06 -1.90132983e-06  1.69677782e-06 -1.66994835e-05 -5.60595405e-06
  6.69451440e-05 -1.23928891e-04 -4.52574378e-06 -4.10518997e-05 -1.03451984e-02
 -5.08771998e-06  1.22884699e-05 -9.12385687e-03 -7.72043310e-06 -1.15158328e-06
 -4.65910738e-03  1.06236714e-05  1.60111666e-06 -1.13298451e-05  1.25590889e-03
 -3.54398368e-07 -8.48859469e-06  1.79270286e-06  5.30626675e-05 -7.38415297e-05
  4.04165496e-06 -4.26905877e-06  5.04747433e-06  2.67129902e-05 -1.26296171e-06
 -4.22418388e-06  1.77648022e-05 -1.11435634e-06 -2.06102248e-06 -4.02079943e-05
  5.11163634e-06 -1.85297235e-06  2.86180751e-06  9.40538836e-05 -4.44107821e-06
  7.36401826e-06 -2.47676014e-06  1.15271793e-06  8.35731876e-05  8.20174363e-07
 -1.11148671e-05 -3.12075326e-07 -1.99817681e-06  1.13214558e-05  3.98726856e-08
 -2.73021709e-06 -4.59791420e-07  1.07047719e-06  6.44414504e-05  7.01323437e-06
  2.40485761e-06 -2.08972359e-06  6.40147196e-07  5.68999909e-06  2.54216166e-05
 -1.14565233e-04  1.03889125e-04  2.05484479e-06 -5.21280157e-06  4.75804238e-06
 -4.82520004e-06  2.12921495e-06 -6.85781396e-06  2.84134088e-05  2.71958138e-06
  4.47798922e-06 -2.12925281e-05  4.75598408e-07  8.12968362e-07 -1.07641968e-06
  4.83005557e-04 -3.04409144e-06 -1.29833265e-05 -7.02148174e-06  2.72740108e-05
  4.76340460e-05  1.14724750e-05 -9.97552511e-06  9.94193798e-06  4.26458836e-05
  8.11876079e-07 -2.80497281e-06 -4.42292918e-05 -3.48575843e-07  1.81586536e-08
  2.68683285e-05  7.31070929e-06 -3.05261578e-06  3.45036535e-06  1.00150036e-06
  9.89677267e-05 -1.22327222e-06 -6.67032095e-06  1.60948926e-06  5.34891066e-06
  9.38282519e-05  6.78598213e-06 -4.04212300e-07  8.25719888e-07 -1.61966948e-07
  1.00980241e-05  5.61837630e-06 -1.25749022e-06  2.00207521e-07  3.42062370e-06
  7.58161413e-05  2.87457003e-06 -2.70807483e-06  2.82526242e-06 -3.96061872e-06
 -1.98197885e-06 -5.86938565e-06 -8.60786507e-05 -1.63231364e-05 -1.28040543e-05
  1.10350199e-05 -4.16178810e-06 -8.59829052e-08  3.61932655e-06 -3.71275488e-05
  8.20884185e-06 -9.68878397e-06 -7.90185408e-06  6.28741800e-06  2.22046030e-07
 -1.85752850e-06  1.43564012e-06  4.97618916e-04 -3.53684344e-04 -2.50899807e-03
  4.66620727e-03 -1.06995818e-02 -4.70022025e-03 -5.22968764e-04 -1.21901325e-05
  5.92389805e-07  7.31340886e-03  5.00376526e-05 -5.93335528e-05 -1.15616941e-03
  2.40650681e-05 -9.56703991e-06 -1.25859492e-03  1.12844798e-04  5.71733192e-06
 -9.59314327e-06 -3.10565928e-06 -1.01775547e-05 -2.41888384e-03  4.52988940e-06
  4.06939422e-07 -3.53082980e-07  9.59748597e-07 -4.72257140e-04  1.47485510e-05
 -8.21261577e-06  4.78487316e-06  5.07405865e-06  3.97828796e-04  1.05971533e-06
 -1.59276936e-05  9.48620824e-06  4.86704906e-06 -8.05176166e-06  1.82145330e-05
 -2.29799308e-03 -4.67692740e-03  2.12953042e-03  1.63206742e-02  5.56840140e-03
  5.39854026e-04  6.38396950e-06 -8.30554544e-06 -9.01984489e-03  3.00198329e-05
 -2.04977444e-05 -1.86517812e-02 -6.60636787e-05  2.92194796e-05 -6.40844724e-03
  1.19966346e-03  1.10775044e-05 -7.14991868e-06 -9.05597544e-06 -2.79258226e-06
  5.47135275e-03  1.65951421e-07  1.43559543e-08 -3.29390661e-05  1.29203544e-04
  1.34581998e-04  8.83356704e-06 -1.78955748e-02 -3.89217409e-05 -2.43528533e-06
 -1.60800522e-02  6.32646130e-05  3.13444812e-05 -5.97373453e-03  6.15204942e-05
  8.41977993e-05  7.74762317e-06 -1.58064959e-03 -2.30172445e-06  5.40110506e-06
  1.91382650e-05  2.10272774e-05 -1.84042035e-03 -2.83317563e-05  2.85330998e-06
  1.26221176e-05  1.98972299e-05 -3.27661533e-04  3.33797049e-05 -1.67687302e-06
 -1.23587807e-06  8.23379981e-06 -6.54228467e-04  1.82926217e-05  3.11894355e-06
 -2.26791526e-06  6.60829999e-06  3.48755074e-06  2.33499140e-06 -7.29280821e-06
 -3.44598007e-05  3.51116227e-05 -2.34812033e-04 -1.32933400e-05 -1.88217966e-02
  2.32656683e-05  1.00083008e-05 -1.74224920e-02  1.39734867e-04  5.88517250e-05
 -7.94409581e-03 -9.65473187e-05  5.21089407e-05  8.42841131e-06  1.43458178e-03
 -1.88851067e-05 -5.56388569e-07  1.02608053e-05 -7.50889378e-06  2.81219288e-03
 -6.56245666e-07  3.09209995e-06  4.76601871e-05 -5.08825978e-05 -5.44613569e-05
 -7.95967684e-06 -3.06607703e-05 -1.78837785e-02  1.60426025e-06  4.69033641e-05
 -1.61035874e-02  4.53085024e-05  5.58453982e-05 -6.00520251e-03 -3.64667074e-05
 -4.95278033e-06 -2.47565142e-06 -1.57577881e-03  1.54446430e-06 -4.36291076e-06
  2.29052400e-06 -2.90248878e-05 -1.82053894e-03 -2.48827730e-06 -6.71838465e-06
 -9.30941618e-06  2.98904481e-05 -3.39951984e-04 -1.78674271e-06  1.54378480e-07
 -1.84343358e-06  1.52320927e-05 -6.65657892e-04 -2.13837308e-06 -1.13293894e-06
 -1.09228753e-05 -2.66125440e-07 -1.03179426e-06  4.88093605e-06  3.96754927e-05
 -1.07066151e-04  1.03595384e-04  5.77085626e-06  2.49201649e-05 -1.88511433e-02
 -2.13712551e-05  1.37935190e-04 -1.75081931e-02  2.40095121e-06 -7.93178211e-05
 -7.93062924e-03 -2.13984998e-05 -9.08186006e-06 -2.15990715e-05  1.45791666e-03
 -4.25921537e-06 -1.53728804e-05 -7.43491614e-06 -3.17682229e-05  2.81940828e-03
  3.03626550e-06  1.80822438e-06 -3.86738161e-05  6.82643406e-05  1.16653617e-04
  1.10575802e-05  4.23513081e-06  5.23532245e-06  1.16709649e-05  1.31840177e-06
  5.19805496e-06 -1.37704115e-05  3.91353649e-06 -9.90062279e-07  6.62371601e-05
  1.08530816e-06 -5.88759726e-06  6.32363079e-06  1.42534920e-04  8.27492733e-06
  5.69821777e-06 -7.30730882e-06  4.06732730e-06  2.90513162e-04  1.78295539e-05
  1.84108865e-05  1.23765441e-06  1.29522943e-06 -1.16271113e-06 -9.46940907e-07
  9.28549301e-06 -7.79120984e-07  2.20716408e-06  1.67692749e-04  2.88951158e-06
 -3.05431876e-06  1.96472404e-06 -2.72465844e-07 -3.50323040e-06 -1.12656357e-05
  5.90397339e-05 -1.91421667e-04 -1.74739079e-05  1.11203748e-06 -4.84975837e-07
  1.68607788e-05  1.79476691e-05 -6.47937855e-06  2.36584489e-05  6.92880284e-06
 -9.39105158e-06  3.52273281e-05  3.89261646e-06 -3.99382697e-07 -5.05918648e-06
  3.41535131e-04  1.56587881e-05 -1.89974423e-05 -2.14605083e-06  7.89330136e-06
  9.68561254e-04  9.68179928e-06 -1.20380939e-05 -1.10185468e-04  2.67331419e-05
 -1.14423804e-04  1.32676296e-05 -1.37026998e-06  7.18366243e-06  1.86160562e-05
  1.52646048e-05 -2.54050186e-05 -1.39435390e-04 -9.32352393e-08 -7.85997469e-06
 -8.50507296e-05 -8.67495147e-06 -1.39916454e-05  9.86142360e-06 -1.14419413e-06
  1.40907795e-04 -2.87757953e-05 -2.07332735e-06 -8.85545012e-07  7.98523292e-06
  3.29504292e-04 -1.97739186e-05 -8.66183962e-07 -8.48101891e-07 -1.38400383e-06
 -5.18646979e-06  1.45047150e-05 -4.53363419e-06  7.55722362e-06  1.60933192e-05
  1.99958552e-04 -4.99648311e-06  3.73710215e-06 -4.24422053e-06 -6.81150026e-06
  6.01075354e-05 -5.77316448e-06  2.29411758e-04  4.13631579e-06  1.09624318e-07
  1.36983319e-06  4.80044178e-05  2.47435954e-05 -2.29218543e-05 -1.96695359e-05
  2.60822449e-05 -1.45194776e-05 -7.26344389e-06 -1.88682834e-06  1.12448139e-05
 -1.64978450e-05  1.38544007e-05  3.63728074e-04 -1.07060241e-05 -6.29049354e-06
 -9.81512580e-06  3.19221759e-05  1.07802659e-03  8.31894698e-04  1.13486494e-03
  2.58601421e-03 -2.61128891e-03  2.12559010e-04 -1.24981549e-04  5.31160801e-06
 -1.13418231e-06  1.33271394e-03  8.67649820e-06  8.11480569e-07 -2.24774401e-04
  1.20003570e-05  4.67729811e-06  2.11144870e-04  2.75399418e-04  1.72139995e-06
 -2.25385789e-06 -2.89406698e-06 -8.75098174e-06 -1.28262254e-04  2.93313308e-06
  9.78206008e-08 -5.64886860e-06 -4.88740355e-06  3.89048476e-05  8.44121613e-06
  2.27216555e-07  5.21197925e-06  4.23011756e-06  1.44359724e-04  1.95400501e-06
  6.38749617e-07  1.31452263e-07 -2.64295204e-06 -5.68043854e-06  4.30311852e-06
 -2.98494793e-04 -4.67183067e-04 -2.56736348e-04  6.64369953e-04  4.95744713e-05
 -7.62700690e-05  3.23007625e-06 -1.54956516e-06 -1.17219906e-03  2.89029754e-06
  3.26588001e-06 -2.20811258e-03 -1.92342571e-05  5.27759270e-06 -1.13542835e-03
  9.73134751e-05  9.90335676e-07  7.13375309e-07 -8.77096866e-07  2.44306791e-06
  4.47513683e-04 -2.21554499e-06  2.55343209e-06  1.35031969e-07 -4.46314625e-06
  2.44847409e-04 -9.94111898e-07  5.07445053e-06 -2.40088049e-05 -4.33406969e-05
 -4.17496870e-05  7.91644084e-06 -3.52049380e-03  4.54693998e-05 -3.55771480e-06
 -2.63121372e-03 -7.25856375e-05 -3.63830520e-05 -8.53714685e-04 -3.07720513e-05
 -1.92146339e-05 -7.88264711e-06 -1.41410191e-04  4.58534537e-06  2.77520411e-07
 -1.81749897e-07 -7.27372557e-06 -2.31301644e-04  1.67105101e-05 -3.07895006e-06
 -9.31285974e-07 -3.50991350e-06  7.20550721e-05 -2.01385906e-05  1.48299146e-06
  7.23867294e-07 -2.97739459e-06 -5.17092517e-05 -1.27410720e-05  1.56354592e-06
 -8.78916437e-07  3.72522467e-06 -5.87514857e-06  2.32593899e-06  1.06948333e-05
 -1.03500409e-05 -2.90307225e-06  8.38266640e-05 -4.63861455e-06 -3.68750514e-03
  1.70974282e-05 -5.74682491e-06 -2.74586025e-03 -5.59860965e-05 -5.71450457e-05
 -2.05527040e-03  9.23672616e-05 -3.04306899e-05 -5.25828950e-06  1.52501830e-04
  8.72024812e-06 -7.27319749e-07 -1.69123151e-06  2.29674042e-05  1.04805672e-04
  2.92065433e-05 -9.74710381e-07 -8.48584093e-06  6.79433695e-06  2.19420702e-04
  6.98013902e-07 -3.34649226e-06  7.05317481e-06  3.14234771e-05  3.10224001e-05
  4.39087459e-06  4.34391989e-05 -3.55840609e-03  7.00066698e-06 -6.41574385e-05
 -2.59248847e-03  2.81844476e-05 -2.82720550e-05 -8.36981042e-04  2.91882310e-05
  5.89292187e-06  8.66450557e-06 -1.40680099e-04 -9.42395448e-07  1.20979248e-06
  8.38359961e-06  2.16463090e-05 -2.37044786e-04  1.07855374e-06  4.60575040e-06
  7.64606534e-06 -1.92014260e-05  8.35906332e-05  1.30402552e-07 -5.33091056e-07
  2.40312505e-06 -1.01682576e-05 -4.64252777e-05  3.21678219e-07  8.13067228e-07
  6.28453619e-06 -4.34716067e-06  8.36639908e-07 -3.49995513e-06  3.82087950e-06
 -2.01267631e-05 -7.07522013e-05 -6.37175899e-07  1.90075010e-05 -3.71055406e-03
 -8.20365244e-07 -6.40624540e-05 -2.72738283e-03  4.56079985e-05  9.63243613e-05
 -2.11478552e-03  1.67273770e-06  3.10605430e-06  6.65746457e-06  1.50304599e-04
 -1.35430818e-07  1.99319591e-06 -1.16536246e-05  3.62160111e-05  9.17922331e-05
  2.05133085e-06  3.21146114e-06  2.17158896e-06 -2.69737309e-05  2.37077782e-04
 -3.38819047e-06 -4.77430921e-06  8.19501140e-06  2.71018349e-05  1.50131680e-05
 -3.42436455e-06  7.28777276e-06 -6.30477745e-06 -2.31424641e-06  4.92372620e-06
  2.07284579e-06  2.37739203e-06  2.35637264e-06 -1.62233051e-06  1.22834331e-06
  2.94770208e-07  3.77406732e-07 -5.86663736e-07  6.59773944e-06  1.54707631e-06
  1.85050871e-06  4.15605365e-07  5.54971259e-07  1.50231068e-05  1.27699602e-06
  6.67020844e-07  6.03880119e-07  2.57193388e-06 -3.43518855e-06 -2.09374684e-06
  2.53166945e-06  9.84290525e-08  5.06250004e-07  2.76886759e-06 -1.24248574e-06
 -5.79557789e-07  5.65637319e-07  3.86641371e-06  7.09917461e-06 -1.30440475e-05
 -1.98226080e-05 -4.25182855e-05  3.53773193e-06  9.04864461e-06 -5.88151738e-06
 -1.90153866e-05  6.76204357e-06 -4.72982585e-06 -1.77299489e-05  4.04041496e-06
 -8.42490230e-06 -3.76572151e-07  1.29833087e-06 -5.66850572e-07  2.12998260e-06
 -1.98837132e-05  1.06535884e-06  7.77967672e-07 -1.30619646e-07  1.21772862e-06
  3.27730288e-05 -1.37783083e-06 -1.64346360e-06 -5.17650700e-07  2.50517735e-06
  8.51497017e-06 -6.77792183e-06 -1.42876755e-05  2.36122119e-05  5.56870557e-05
  1.83554075e-05 -6.15695364e-06  1.27886070e-05 -1.47869328e-05 -3.14091951e-06
  1.15567134e-05 -1.74204237e-05  6.90651587e-06  3.87309896e-06 -3.80221957e-06
 -6.70518316e-06  6.38264397e-07  5.72592391e-07 -5.93528891e-08 -1.30920907e-06
  2.89137799e-06  2.15763678e-06  2.29766040e-06 -1.37769144e-06 -2.54274480e-06
  1.50213542e-05 -2.95845819e-06 -4.66846580e-07  2.26667885e-07 -1.29634990e-06
 -4.39819065e-06  8.25738042e-07  3.71439839e-07 -1.20949792e-07 -1.18997658e-07
  3.84394027e-06 -1.25047546e-08  2.45831981e-07  1.79251570e-06  5.39588804e-06
 -9.97274602e-06 -2.09676543e-05 -1.68914604e-05  1.81729117e-06  1.47895101e-05
 -1.72710898e-05 -1.15519420e-05  1.51948890e-05 -1.50903458e-05  8.58679590e-06
  6.65866029e-06 -9.95974483e-06  1.62099153e-05 -1.95016842e-07 -6.61099548e-08
 -3.08278740e-07  3.22829006e-07 -1.91575749e-05 -5.68352834e-06 -3.29161795e-06
  2.36389154e-06  1.08547608e-06  4.27047892e-05 -5.11030741e-06 -1.78563390e-06
 -3.71246211e-08  7.46293894e-07  9.47348606e-06 -5.21908640e-04 -4.22278635e-04
 -3.05421690e-04  2.95303459e-03  1.49861524e-03  1.77460515e-04  4.50205661e-06
 -1.41620360e-06 -1.56857097e-03 -3.64237398e-06 -4.87357564e-06  2.33831909e-05
 -1.21296976e-06 -6.92826048e-06  4.70548356e-04 -4.91395101e-05  1.35342409e-06
  2.25930210e-06 -2.40972910e-06  5.28382507e-06  4.82476668e-04 -2.31745408e-06
  1.99688998e-06  2.21271282e-06  5.39291117e-06  1.69604141e-04 -1.50553341e-06
 -2.88869187e-06 -1.05350763e-06 -1.26046952e-06 -9.82533443e-05  9.73288027e-07
  1.76836144e-06 -4.17322371e-07 -3.36390821e-06  1.06936967e-05 -8.72351982e-06
  3.88865194e-04  9.23025926e-04 -1.18360628e-03 -3.58871308e-03 -1.96730852e-03
 -2.30168717e-04 -6.33128313e-06  7.49157127e-06  2.19160551e-03  1.74781394e-06
 -1.19505668e-05  3.58104303e-03  1.30007810e-05  9.22843424e-06  1.27908230e-03
 -2.09827266e-04  3.32011661e-07 -1.62088633e-06 -4.33988900e-06  4.25123518e-06
 -9.67804711e-04  6.60610485e-06 -5.37093645e-06  1.21453205e-05 -7.54432662e-06
 -6.05768688e-05 -4.16952306e-06 -3.54636414e-06  1.24861126e-06 -1.42481363e-07
  4.51750535e-04 -4.31402955e-07  8.80114618e-06 -1.40396881e-05 -1.31003191e-05
  1.73429438e-05 -3.30008978e-06  3.59172389e-03  1.79702809e-06 -7.74180987e-06
  3.32231167e-03 -3.34592157e-05 -6.94295764e-06  1.25319093e-03 -6.54991190e-06
  2.66237002e-06 -3.31828491e-07  3.95779536e-04  6.38451633e-06 -8.01134459e-07
  3.06001881e-06 -4.81381673e-06  3.77209966e-04  7.25432091e-06 -5.91144872e-07
  1.73874721e-06  1.71781871e-06  9.23760561e-05 -4.41270617e-06 -2.64244397e-08
 -5.26121593e-09 -1.80794072e-06  1.80591986e-04 -3.15750504e-06  1.40788706e-06
 -3.27459179e-06  4.45562805e-07 -2.54107706e-08 -1.44229695e-07 -1.74150714e-06
 -6.89010802e-06  3.13152248e-05 -1.47158460e-05  7.10286503e-07  3.97969079e-03
 -1.54606341e-05  5.40753983e-06  3.58572698e-03 -8.75891515e-06 -1.54796656e-05
  1.48035954e-03  1.52269102e-05  5.65421298e-06  1.77515669e-07 -2.70875150e-04
  3.41179018e-06  1.20319290e-06  3.57242002e-06  5.90995244e-06 -4.35946948e-04
  6.08473829e-06 -3.03302119e-06 -1.05123518e-05 -7.02763794e-07  3.09521610e-05
 -6.24766002e-06 -4.04380491e-07 -4.29712720e-07  2.82999426e-06  2.77413156e-04
  8.96489102e-07 -1.20790887e-05  1.60118575e-05  1.86729008e-05 -5.04397683e-05
 -2.04613188e-06  3.55180754e-06  3.58295398e-03  8.88810048e-06 -3.52877459e-05
  3.36113532e-03  1.19885954e-05 -8.81184582e-06  1.26283212e-03 -2.60633733e-05
  2.90666971e-06  8.08360235e-06  3.96207808e-04 -5.13036479e-07 -2.37319261e-06
  7.97685009e-07  8.94152072e-06  3.78694575e-04  1.68438097e-06  9.71837742e-07
 -7.69274627e-06 -6.18649644e-06  9.85193053e-05  6.97947494e-07 -1.07815726e-07
 -2.14100850e-06 -3.91400911e-06  1.83676201e-04  5.26759580e-07  1.73825206e-06
  3.58321621e-06  1.54384573e-06 -1.33462456e-07  3.83620431e-06  1.60453458e-05
 -5.18811190e-05  5.49651492e-05  7.61428135e-06 -1.22609948e-05  3.98792638e-03
 -9.44392634e-06 -1.63470640e-05  3.58911808e-03  2.45501991e-05  2.23974903e-05
  1.44947428e-03 -1.27084362e-05 -2.10386281e-06  2.37970163e-06 -2.66453186e-04
 -1.73290529e-06 -1.02457238e-06 -3.63430538e-06  8.24291596e-06 -4.34671491e-04
  7.16003818e-06  6.31589191e-06 -2.52741798e-06 -7.15664835e-06  4.24406789e-05
  9.09317248e-08  3.81633272e-07 -6.54005284e-06 -2.16507442e-06  2.84284534e-04
 -2.76555959e-06  2.22097101e-07  1.29227135e-05  3.32226736e-05  5.44909033e-05
 -5.59343972e-09  4.54669206e-06 -3.01456751e-06  3.32739203e-06 -4.18798448e-06
  3.10882034e-06  2.63050583e-05 -8.62583460e-07  1.03085157e-06  3.04123262e-05
  4.91472480e-06  5.03246892e-07  1.08815265e-06 -7.79525962e-05  4.10285120e-06
  8.91230521e-06  9.74895137e-07  9.01624383e-07 -7.78815861e-05 -2.12225937e-07
  7.17104333e-06 -8.51505729e-07  8.57400594e-08  2.59279608e-06  2.53066429e-07
  2.81323744e-06 -1.18490045e-06 -1.57371875e-06 -9.79596495e-05 -4.38682847e-06
  1.60490794e-06 -4.03105256e-07 -1.66361711e-06 -1.38701340e-05  2.18986601e-05
 -1.26096323e-05 -9.87314099e-05 -5.89200487e-06  3.01593912e-06 -1.47465048e-06
 -7.74735290e-06  5.27513816e-07  1.87126827e-06  1.61942483e-05  3.22869653e-06
 -2.66831058e-07  1.05576873e-05  4.14970569e-06 -9.37954702e-07  2.02068752e-06
 -8.41425584e-05  6.79425181e-07 -9.12590119e-06 -4.02271865e-06  7.15725469e-06
 -6.98235747e-05 -1.66436543e-05 -1.73141510e-07 -1.42017148e-06  1.71924111e-07
  1.08057904e-05 -9.63188213e-07  3.13511213e-06 -2.29620881e-06  2.59064608e-06
  1.79598636e-04 -6.26537174e-06 -6.00408454e-06  3.55566366e-05 -1.93491980e-05
 -4.96192031e-06 -6.84966962e-07  2.17484157e-06 -9.28418974e-06  1.52611041e-05
  2.71676242e-06  1.58863171e-06 -2.13399838e-06  8.36272369e-07 -1.90868979e-06
 -2.57706248e-06  1.12901303e-05  2.12305202e-06 -2.08479907e-06 -3.89227038e-06
 -7.97294434e-05  7.89710251e-06 -1.17454183e-06 -9.68458337e-07 -2.45241498e-06
 -8.64005212e-05 -7.62701347e-07 -6.64946792e-08 -3.07913231e-07  2.14748246e-07
  2.84345218e-06  2.09711532e-06  1.86560586e-06 -1.16881477e-06 -2.15762770e-06
 -1.03252986e-04  3.99206920e-06 -2.95703608e-06 -4.87675321e-06 -1.05209909e-05
  4.15786077e-05 -3.87398991e-05  4.24851520e-06 -5.62835611e-07  1.65202658e-06
 -3.57314295e-06 -1.88992121e-05 -1.62563080e-06 -2.55837976e-06 -1.32843641e-05
  5.74096559e-07 -4.18144605e-07 -2.38556976e-05  4.00308076e-06 -3.56903466e-06
  3.30439334e-06 -1.02592717e-05 -9.33196376e-05  1.39361429e-06  1.85264859e-06
 -1.88282344e-06  4.76370400e-06 -9.25908170e-05  4.87473735e-06  1.20764470e-06
  3.10200269e-07  1.73644542e-06  1.03094568e-05  3.69717775e-06  3.94958217e-06
 -2.31504842e-06  4.84041320e-06  1.85717131e-04 -1.33618806e-07  2.54638673e-06
  4.83410084e-06 -3.54428815e-05  6.92297346e-05  8.03639807e-06 -3.15936174e-05
  2.47381919e-05 -2.76199956e-07 -4.10627642e-05  4.89224647e-05 -2.88271880e-05
 -2.02300245e-05  2.16543127e-05  4.62244365e-05 -8.44941218e-06 -2.25580840e-06
  7.05176320e-06  1.49991739e-06  2.38422943e-06  2.50214569e-06 -4.46803320e-06
  6.78542180e-06 -2.87401863e-07  1.54358816e-06  1.40940477e-05 -1.63443932e-06
  2.23065182e-06  1.99571110e-07  1.38528271e-07 -1.26529849e-05  1.40001377e-07
  5.22973190e-06 -1.28736849e-06 -3.90118916e-06  4.08917131e-05  1.32644584e-05
 -2.75845194e-07 -3.54033225e-06 -6.81097387e-06  6.42269406e-05 -9.84951468e-05
 -1.28618015e-05 -1.40490389e-04  1.12558617e-04 -3.53580283e-07 -9.57555565e-05
  9.33017516e-05 -1.14816034e-05 -2.94548932e-05  2.65297209e-05  8.87450326e-06
  5.37171482e-06  2.49174350e-06  1.23359446e-06  2.62014698e-06  1.83705318e-06
 -1.66200787e-06  8.36441632e-06 -1.31483272e-05 -3.16947385e-06 -3.32929066e-06
  4.04515921e-06  2.13630912e-07  5.40010618e-07 -8.26639892e-07 -5.97822499e-07
  1.50692256e-06 -9.31582042e-08 -3.23469093e-06 -1.40685378e-06 -7.52214505e-07
  1.47634534e-04  8.25651438e-07  5.79026190e-06 -1.35121335e-05 -2.64985438e-05
 -2.37216373e-05 -3.14030222e-06  2.07286885e-05  2.89402002e-05 -1.07986195e-05
 -4.78917988e-07  2.60182616e-05 -1.68696340e-05  3.90363389e-06  1.56972595e-05
 -2.14021684e-05  3.27745952e-06 -2.77383136e-06  1.15898854e-07  6.47949643e-08
 -2.89083044e-06 -1.17514300e-05 -2.73092695e-06 -5.00904607e-07  5.31592012e-07
 -2.46456147e-06 -5.41910455e-06 -5.07349383e-07  9.81821411e-07 -2.42861062e-07
  5.24589249e-09  1.28137005e-05  4.30878652e-07  3.68305282e-07  8.44033536e-07
  2.88584852e-06  1.44350663e-05  6.19349062e-05  3.14689725e-07  5.45475341e-06
 -1.64573689e-05  2.12752123e-05  5.94236358e-05  2.47992604e-06  8.36594144e-05
  1.25754077e-04  1.11331795e-05  3.51170714e-05  7.88898236e-05 -3.23948464e-05
  9.80574594e-06  2.60741180e-05 -3.87521799e-06 -2.11233188e-06  4.03362427e-07
 -5.01410269e-06 -1.30958948e-06 -1.04880303e-06  3.28705589e-06 -3.86853821e-07
  6.63727342e-06  4.11635548e-07  1.64896031e-06 -1.41955870e-06 -9.39114329e-07
 -3.37287723e-07  6.24945565e-07  4.05822702e-07 -5.75493092e-07  8.68583262e-07
  6.46087310e-06  1.92267104e-06 -1.11452163e-06 -7.93202997e-06  1.42798676e-04
  1.14925708e-04  2.81132508e-04 -5.16669329e-04 -1.91865632e-03 -3.02075670e-03
  2.07645042e-03  4.93676760e-07  3.63051935e-07 -8.17623907e-04 -5.01043516e-06
  6.28116427e-06 -1.32674208e-03  1.56238371e-05 -1.38779297e-05 -1.66842357e-03
  1.42624505e-04 -2.46249730e-07 -1.65096972e-06  5.77103133e-07  6.29229269e-07
  1.37159454e-04 -5.26409407e-07 -2.37138413e-06 -1.40536013e-06  5.49840305e-07
  6.06965306e-07 -9.05506988e-08 -1.56406888e-06  9.91325787e-07 -4.02133067e-06
 -2.82369609e-05  9.77737207e-07 -3.00313132e-06  3.31731698e-07  5.23641618e-07
 -6.22263901e-07  5.35054281e-07 -8.92527252e-05 -2.25181335e-04  4.07185353e-04
  9.71819583e-04  3.98971388e-03 -4.53008546e-04 -1.91866599e-06  2.74353323e-06
  4.09806097e-04  3.03223728e-06 -3.80895927e-06 -2.78819790e-04 -1.22564630e-05
  1.41930730e-05 -4.96495734e-04 -3.55239859e-05 -3.95725769e-07  1.50401829e-06
  8.29155425e-08 -1.13580721e-06  1.51718997e-04 -4.60484839e-06  4.39645758e-06
 -1.32265019e-06 -1.94723346e-06  1.71510186e-04  5.17953028e-06 -5.69549672e-06
  1.94095599e-07  2.23588892e-06 -1.73806031e-05  2.31497429e-06 -3.34843054e-06
 -7.91148542e-07 -3.78299360e-07  3.19076337e-06  1.35150138e-06  5.69355163e-02
  2.01491562e-04  4.90150055e-04 -1.03910254e-03 -3.75617756e-03 -6.21060800e-03
  4.34211312e-03 -7.39066989e-06  1.52264508e-05 -1.74314072e-03 -1.79875485e-05
  2.53111643e-05 -2.84728728e-03  2.86000991e-05 -1.08819629e-05 -3.53080622e-03
  3.10712758e-04 -1.99129178e-07 -1.40473184e-07  1.15982451e-07  1.25496530e-06
  3.18767720e-04 -7.31146813e-06  1.41074768e-05 -2.74643969e-06 -7.01971841e-06
 -1.59820431e-05 -1.57763413e-06  5.43929305e-06  2.51747021e-06 -8.10672195e-06
 -5.68414210e-05 -6.67229171e-07  2.51674713e-06 -4.20781727e-07 -6.50256893e-07
  4.27127241e-07  4.96933214e-07 -2.20418120e-04 -4.85241284e-04  3.15552325e-04
  1.73602869e-03  8.03354873e-03 -9.25867296e-04 -1.43730521e-05  1.67113928e-05
  6.75184763e-04 -1.18723885e-05  1.91548850e-05 -7.16713431e-04 -1.36579609e-05
 -7.18918718e-06 -1.04376531e-03 -9.71826924e-05 -6.94661443e-07  1.13503205e-08
 -1.36022915e-06 -5.47851052e-07  2.83910579e-04  7.37817515e-07  2.97220621e-06
  3.68642312e-06  1.82318453e-06  3.51594110e-04  2.47702866e-06 -2.76513856e-06
 -2.42207590e-06  4.88117547e-06 -2.85542477e-05 -1.27828647e-07 -2.21605244e-07
  3.97900746e-07 -9.66807950e-07 -1.00488253e-06 -7.46973817e-07  1.20012519e-01
  2.54498742e-01  3.33069487e-04  7.03285784e-04 -1.11814240e-03 -3.16944238e-03
 -5.40781003e-03  3.19797139e-03  1.42362106e-05 -1.87791593e-05 -2.44008980e-03
  1.41435811e-05 -2.15682449e-05 -3.05866792e-03  2.09899575e-05 -1.39065409e-05
 -3.35511041e-03  2.05268954e-04 -2.05614189e-07  6.34629039e-07 -4.71206356e-07
 -5.29517011e-06  2.58789257e-04 -7.74867557e-06  8.24460788e-06 -3.73566446e-06
 -8.75782462e-06 -1.31983442e-04 -7.93113790e-06  8.82248737e-06  2.44473024e-06
 -6.19067750e-06 -7.14335681e-05 -5.28189475e-06  5.54910004e-06 -8.71967062e-07
 -6.12816494e-07 -1.73914588e-07 -5.45129774e-07 -2.64969509e-04 -7.15782296e-04
  1.69102880e-03  2.82413996e-03  8.19893235e-03 -3.34540487e-04  8.05383474e-06
 -1.33601493e-05  2.24220133e-03 -4.60255439e-06  1.06389880e-05  8.19210825e-04
  2.97403531e-05 -5.12786090e-05 -3.89725849e-04 -1.16376065e-04  1.31911032e-06
 -1.39472228e-06  1.04826051e-06  1.81379716e-06  1.73184972e-04  2.78499190e-06
 -9.41917883e-06  1.82966185e-06  5.36750117e-06  2.41912776e-04 -2.39385402e-06
  5.16162832e-06 -7.00747863e-07  4.37167726e-06 -2.85886706e-05 -2.98640893e-06
  6.41444289e-06  1.01818308e-07  9.63006492e-07 -7.32728922e-06 -2.28766694e-06
  9.07500954e-02  1.92972510e-01  1.46560019e-01  4.47337694e-07  9.83443062e-07
  8.13115671e-06 -6.16034136e-05 -1.56459492e-05 -2.31591863e-06 -3.05042756e-07
  6.67493676e-06 -1.58101318e-06 -7.78315682e-06 -5.61567954e-06 -3.68028974e-05
  4.08747823e-06 -1.96320044e-06 -1.35052517e-05 -1.60255477e-06 -2.39334065e-06
 -1.78760682e-06 -3.57816349e-06 -6.60007314e-06 -7.95131852e-06 -8.19815465e-06
 -3.30114968e-06 -3.48802382e-06 -9.05330414e-06 -2.99722146e-06  7.41030605e-06
 -2.23108000e-06 -2.03561982e-07  3.45573904e-07  5.06570938e-06  1.87282956e-06
 -6.02652083e-07  1.02605236e-06 -2.53800625e-07 -5.87895598e-06 -2.22435550e-06
 -9.06367492e-07 -9.29035707e-07 -8.78194111e-06  4.34215701e-05  5.05807266e-05
  2.47031900e-06 -1.86114688e-06  5.07300023e-06  6.92667070e-06  1.88913557e-06
 -3.84299340e-06 -3.19322195e-05 -1.90631989e-05  1.50562762e-05 -8.91885027e-06
  9.20579027e-07 -4.90892314e-06 -4.45283001e-06 -8.17835817e-07  1.42361935e-06
  8.22612593e-07  2.85361999e-07  5.99462152e-06 -2.39111400e-06  6.14311877e-06
  1.59133331e-06  2.25009956e-06 -4.14031618e-06  1.98791191e-07  8.79814808e-07
  2.34097412e-06  3.75053621e-06  1.67546944e-06 -3.48087119e-06  1.19588330e-06
 -5.53723840e-07 -2.15277039e-06  2.20610301e-07 -1.22385386e-06 -7.65210620e-08
  1.71802291e-04  9.97734413e-08  2.02088359e-06 -8.48405110e-06 -3.35471629e-05
 -6.05674621e-07 -2.63647155e-06  3.77850068e-06 -2.14597620e-06 -7.37247177e-06
 -6.93222031e-06 -2.91534774e-06 -2.84256410e-05 -3.66339443e-06  3.87735032e-06
 -3.78896925e-06 -2.15399093e-06 -1.66064786e-09  7.89876104e-07  8.85727476e-07
  2.53596648e-06 -1.01229463e-05 -3.76395563e-08 -2.40841257e-06  1.44702366e-06
  2.33174918e-06 -2.68610110e-07 -2.18856318e-06  6.54038402e-06 -1.04621748e-07
 -1.23177469e-07  2.89297098e-06 -6.98454865e-07  7.12187869e-07  3.42112641e-07
  3.37767523e-07  7.77597399e-07 -2.16152611e-06 -8.88333567e-09 -4.22891338e-07
 -1.37290672e-05  5.13655250e-05  7.31570631e-06  4.34685821e-06  9.01828024e-07
 -3.78274258e-06  4.29587519e-06 -8.50264921e-06 -1.76775423e-06 -3.11544993e-05
  8.57156074e-06 -1.51179418e-05 -2.74698339e-06  6.47428646e-07 -3.14475150e-07
 -7.05757957e-07 -1.12017281e-06  2.53466248e-06  6.55959949e-06  2.98050530e-06
  8.93396037e-07  1.67557565e-06  6.09023396e-06 -3.28416728e-07 -3.53014455e-06
  2.00256753e-06  5.36860345e-07  1.47675893e-07 -1.42982201e-06 -1.14010312e-06
  1.57396626e-06  3.23883408e-07 -2.22862197e-06  7.31516125e-07 -6.00249940e-07
 -6.66536924e-07  3.21209821e-07 -4.07921268e-08 -2.36799988e-06  1.71746904e-04
  4.34799613e-06  1.21258989e-06  1.82724333e-05  4.41386548e-05 -5.82567738e-05
 -3.94855851e-05 -3.13194612e-06 -7.34786938e-07 -3.50656179e-05  3.42218622e-06
  1.67963254e-06 -3.20157523e-05 -1.35515846e-06 -2.09137768e-06 -7.22054093e-05
  1.55663851e-06 -2.53979699e-06 -2.53179352e-06 -2.55220246e-06 -3.45630169e-06
  9.26305746e-06 -2.84182748e-06 -1.49784507e-06 -2.08870414e-06 -5.12416797e-06
 -2.98368941e-05 -5.05685507e-07 -2.36952990e-06  4.21418985e-07  9.05001078e-08
  1.62252155e-06 -7.89345415e-08 -1.65729100e-06  5.68173250e-07 -1.47094128e-07
 -7.98175071e-06 -2.64372340e-08 -6.08083340e-06 -7.51646764e-06 -4.74472556e-05
 -2.83750795e-05  7.74772984e-05  5.15299065e-05 -4.86435628e-07  2.52587728e-06
  1.58680366e-05 -2.66063930e-06 -4.01519307e-06  1.48162435e-05  1.62180680e-06
  1.00800186e-05 -9.96292918e-07 -2.25924125e-06  4.85992896e-06  2.78995325e-06
 -1.07522689e-06  2.71189242e-06 -7.09205502e-06  3.31637013e-06  1.26588449e-06
 -1.37929645e-06  5.20664527e-06 -5.92874549e-06 -2.67796662e-07 -2.17535795e-06
 -2.10131542e-07  2.27863773e-07  5.03257509e-06 -6.28551818e-07 -1.08324898e-06
 -1.56393899e-06  4.96899415e-07 -3.04494081e-06 -1.18881679e-06  1.58417259e-04
  3.28912869e-04  2.59893505e-04 -1.13505456e-06  2.52136499e-07  1.72351781e-04
  4.92529703e-07  1.49672117e-06  1.36367451e-06 -5.35712507e-05 -1.32034826e-05
  3.30966397e-06  4.40473848e-05  1.06249591e-05 -6.64330080e-06  5.21299835e-05
  2.01098478e-06 -3.52422955e-05  2.64993965e-05  3.24659982e-07 -2.12219702e-06
 -1.79384211e-06  1.89655537e-06 -2.57512210e-07 -1.39845666e-06 -3.36900154e-06
 -6.34062291e-06  1.42062656e-06 -1.59082874e-07 -1.50039816e-06 -2.56670085e-06
  1.55872518e-06  8.21307894e-06 -1.48939239e-06  7.30773200e-07  6.15406105e-07
  1.18163577e-06  3.45492474e-06 -6.73553081e-07  3.68013777e-07  2.21288318e-08
 -2.42647884e-06 -8.73066469e-07 -1.67545255e-06 -3.57870774e-06 -1.11209344e-06
  4.19943132e-05  3.76338907e-05  2.71954760e-06  4.54064052e-05  9.62537911e-06
  9.97086695e-06  7.09243257e-05  2.40534189e-06 -1.61832152e-05  4.15110688e-06
  1.37662797e-05 -1.55206583e-05 -7.35919806e-07 -2.77205246e-06 -1.33280410e-06
 -5.10268175e-07  3.42403428e-07  4.25969435e-06 -9.55769566e-06  2.70750684e-06
 -2.69626088e-07  2.95073358e-06  5.63697688e-06  4.68471715e-06 -1.87632114e-06
  3.76792454e-07 -5.58305118e-07 -1.97030479e-07  4.05370268e-06 -3.05094847e-07
 -7.83046346e-07  5.69823563e-07 -8.21329855e-07 -1.48382086e-06  1.94111023e-06
  4.84462820e-06  4.23061577e-06  3.98127059e-05 -5.41772126e-07  8.57339095e-07
  1.12256341e-05  5.10082296e-07  4.36151643e-07 -3.79100912e-06 -3.93550722e-06
  2.42342575e-06  2.59130365e-06  3.49290116e-06  4.35234948e-05  7.65856284e-08
 -2.33450447e-06  5.53733830e-05 -2.14733049e-07 -9.72378426e-07  2.34242428e-05
  2.70639558e-06 -2.70809103e-07 -1.88175694e-08  2.92749128e-06  6.46952543e-08
  2.99687939e-07 -6.88976220e-07  6.86684529e-07  2.82971642e-06  7.62253878e-07
  1.45772176e-06  6.18590353e-07 -1.02646908e-06  5.44887818e-06 -2.06666510e-07
  7.40242606e-07  1.69291759e-06 -6.24843986e-07  3.26728394e-06  2.03147234e-07
  4.71144614e-07  4.60109058e-07 -7.89590444e-07 -5.47134332e-07 -1.50146248e-06
 -1.39107187e-06  1.00184913e-05 -1.74214101e-06 -4.32327740e-06  1.61042232e-06
  4.60322091e-05  8.05681576e-07 -5.30178592e-06  7.23135643e-05 -4.03757951e-06
  6.48629075e-06  1.04787513e-05  3.48167823e-06  2.46297849e-07 -5.92796416e-08
 -1.97661833e-06 -4.52186758e-07  1.07087410e-06  3.24314908e-07  2.74962579e-06
 -1.03728919e-05  1.03312441e-06  2.85189342e-06 -3.86741189e-07 -6.94574427e-07
  3.44489189e-06  1.00213477e-08 -1.11826430e-06 -4.81402062e-07 -8.32105265e-07
  3.98174851e-06  6.55578952e-08 -3.97671678e-07  3.44624092e-07 -5.57053549e-07
  2.83587678e-07 -8.44896878e-07  7.90353071e-07 -4.66152030e-07  3.83511560e-05
  6.20792691e-08 -1.46268945e-07  1.09960041e-05  8.20461296e-05  1.74377874e-04
 -2.42482892e-04 -5.04905128e-04 -5.06298040e-04 -1.12583548e-05 -5.51584462e-07
  4.84612434e-06  2.31017918e-04  1.87272164e-06  6.48024071e-06  1.78334785e-04
 -3.61471407e-07  1.06836917e-06 -1.84792091e-04  1.52820179e-06 -2.01593141e-06
 -1.35250000e-06 -8.43149940e-07 -2.37514289e-06 -1.13047300e-05 -2.32596138e-06
  3.22211290e-07 -1.28431201e-06 -2.27620325e-06 -6.26452315e-05 -7.46880633e-07
  5.95160323e-07 -4.63114363e-07  7.09795434e-07  3.60558192e-06 -4.38861000e-07
  1.14110757e-07  1.54590824e-08  1.71205156e-07 -3.20213089e-06 -2.32999510e-07
  5.58388043e-06 -4.22571435e-05  5.55460393e-04  2.63442575e-04  6.78235880e-04
  7.16869450e-05  8.51809095e-07  5.46148873e-06  9.06929619e-05 -5.70911443e-07
  2.63786073e-06  6.70593256e-05  2.11494680e-06  5.65560625e-06 -4.89136929e-05
  1.60914477e-05  2.28832681e-06 -1.44994028e-08  4.67815090e-08  7.14793616e-07
  1.84687157e-05  6.71124876e-07  2.22908833e-06 -1.32376875e-06  3.22212078e-06
 -3.71368747e-06 -1.93506821e-07 -1.20411605e-06  5.15038348e-07 -3.99021291e-07
 -9.23308050e-06 -3.15129833e-07 -5.03065889e-07 -8.01390374e-07  3.76100034e-07
 -3.15097794e-06 -4.96001319e-07  8.06765094e-04  1.72380754e-03  1.32340986e-03
  1.00866963e-06  2.72803039e-07  4.78982841e-05 -2.15033056e-07  4.86020391e-07
  3.17516457e-05
Natural orbital occupancies                R   N=           77
  9.99982583e-01  9.99962555e-01  9.95123274e-01  9.87815954e-01  9.80356617e-01
  9.80081603e-01  5.06104746e-01  4.93876051e-01  1.41496231e-02  1.43992946e-02
  6.59679337e-03  2.47338367e-03  6.74188062e-06  5.87759529e-06  4.99405388e-06
  1.70289218e-03  1.74411346e-03  3.12716878e-03  6.88583534e-04  6.36495981e-06
  5.10830472e-06  3.06725948e-06  1.40852939e-03  1.48312203e-03  1.25337936e-03
  5.83331599e-04  6.21845023e-06  3.36946649e-06  2.55582928e-06  1.36002837e-03
  1.13794154e-03  6.17069791e-04  2.27567653e-04  5.92833454e-06  1.32913757e-06
  2.37889438e-06  5.37090399e-04  3.59815392e-04  1.27051414e-04  2.02657179e-04
  5.84194328e-06  8.56010117e-07  2.06034899e-06  3.38083881e-04  1.63707094e-04
  1.10186579e-04  1.79399249e-04  4.98174728e-06  2.28394797e-07  1.28481799e-06
  1.72205990e-04  1.06044946e-04  9.27483302e-05  1.60287044e-04  4.47220850e-07
  2.08872095e-07  1.14570874e-06  1.04343298e-04  1.02141832e-04  8.91063960e-05
  1.21858951e-04  4.01973435e-07  1.79728971e-07  1.04848612e-06  1.02939873e-04
  1.00273571e-04  8.74804672e-05  1.20766856e-04  2.84295380e-07  1.51786195e-07
  6.67309831e-07  4.26600886e-05  4.69287767e-05  8.30616811e-05  1.18890145e-04
  2.33889104e-07  1.07662634e-07