pynof
Energy PNOF8 CC-PVDZ
Number of atoms                            I                3
Charge                                     I                0
Multiplicity                               I                1
Number of electrons                        I               10
Number of alpha electrons                  I                5
Number of beta electrons                   I                5
Number of basis functions                  I               24
Number of independant functions            I               20
Number of contracted shells                I               12
Highest angular momentum                   I                2
Largest degree of contraction              I                8
Number of primitive shells                 I               32
Atomic numbers                             I   N=           3
           8           1           1
Nuclear Charges                            R   N=           3
  8.00000000e+00  1.00000000e+00  1.00000000e+00
Current cartesian coordinates              R   N=           9
  0.00000000e+00 -3.71371013e-04  1.26473260e-01  0.00000000e+00  1.42255700e+00
 -1.00443252e+00  0.00000000e+00 -1.41666307e+00 -1.00278990e+00
Shell types                                I   N=          12
           0           0           0           1           1          -2
           0           0           1           0           0           1
Number of primitives per shell             I   N=          12
           8           8           1           3           1           1
           3           1           1           3           1           1
Shell to atom map                          I   N=          12
           1           1           1           1           1           1
           2           2           2           3           3           3
Coordinates of each shell                  R   N=          36
  0.00000000e+00 -3.71371013e-04  1.26473260e-01  0.00000000e+00 -3.71371013e-04
  1.26473260e-01  0.00000000e+00 -3.71371013e-04  1.26473260e-01  0.00000000e+00
 -3.71371013e-04  1.26473260e-01  0.00000000e+00 -3.71371013e-04  1.26473260e-01
  0.00000000e+00 -3.71371013e-04  1.26473260e-01  0.00000000e+00  1.42255700e+00
 -1.00443252e+00  0.00000000e+00  1.42255700e+00 -1.00443252e+00  0.00000000e+00
  1.42255700e+00 -1.00443252e+00  0.00000000e+00 -1.41666307e+00 -1.00278990e+00
  0.00000000e+00 -1.41666307e+00 -1.00278990e+00  0.00000000e+00 -1.41666307e+00
 -1.00278990e+00
Total Energy                               R     -7.624282642339571e+01
Primitive exponents                        R   N=          32
  1.17200000e+04  1.75900000e+03  4.00800000e+02  1.13700000e+02  3.70300000e+01
  1.32700000e+01  5.02500000e+00  1.01300000e+00  1.17200000e+04  1.75900000e+03
  4.00800000e+02  1.13700000e+02  3.70300000e+01  1.32700000e+01  5.02500000e+00
  1.01300000e+00  3.02300000e-01  1.77000000e+01  3.85400000e+00  1.04600000e+00
  2.75300000e-01  1.18500000e+00  1.30100000e+01  1.96200000e+00  4.44600000e-01
  1.22000000e-01  7.27000000e-01  1.30100000e+01  1.96200000e+00  4.44600000e-01
  1.22000000e-01  7.27000000e-01
Contraction coefficients                   R   N=          32
  7.10000000e-04  5.47000000e-03  2.78370000e-02  1.04800000e-01  2.83062000e-01
  4.48719000e-01  2.70952000e-01  1.54580000e-02 -1.60000000e-04 -1.26300000e-03
 -6.26700000e-03 -2.57160000e-02 -7.09240000e-02 -1.65411000e-01 -1.16955000e-01
  5.57368000e-01  1.00000000e+00  4.30180000e-02  2.28913000e-01  5.08728000e-01
  1.00000000e+00  1.00000000e+00  1.96850000e-02  1.37977000e-01  4.78148000e-01
  1.00000000e+00  1.00000000e+00  1.96850000e-02  1.37977000e-01  4.78148000e-01
  1.00000000e+00  1.00000000e+00
Alpha Orbital Energies                     R   N=          24
 -2.05727283e+01 -1.25658284e+00 -7.35695247e-01 -7.10561897e-01 -5.28389148e-01
 -1.73343296e-02 -8.79877848e-03 -8.51934244e-03 -3.07964454e-02 -7.26387512e-03
 -7.44598084e-03 -3.36324675e-02 -1.56252647e-03 -1.04399960e-03 -1.32500461e-02
 -8.14240500e-03 -1.82408389e-03 -2.30097517e-04 -2.09763439e-04 -1.62130661e-04
  0.00000000e+00  0.00000000e+00  0.00000000e+00  0.00000000e+00
Alpha MO coefficients                      R   N=         576
  1.00183794e+00  1.87717519e-03 -5.71154715e-03 -4.93611560e-06  7.56628816e-05
 -2.03492817e-03 -2.45530691e-06  1.89093903e-05 -1.81131838e-05  5.86099715e-05
 -2.25966572e-07  5.78399225e-06 -1.75840374e-04 -2.37257708e-06 -1.55992964e-03
  3.83055924e-04 -1.19272450e-06  8.03989265e-04 -6.69052193e-04 -1.57304040e-03
  4.13185113e-04  1.61053375e-06 -8.35339068e-04 -6.86568986e-04 -3.45254688e-03
  4.70033099e-01  4.80652128e-01  7.97524664e-04 -2.26076072e-02  1.31000292e-01
  5.82115768e-04 -1.04853781e-02  1.50573149e-01 -5.66812746e-03 -1.15226233e-05
  1.07041791e-03 -1.51942136e-03 -2.05491822e-05  8.28049289e-02 -9.92551334e-03
  3.33120679e-05 -1.98197365e-02  1.99001535e-02  1.13557863e-01 -1.92610557e-03
  4.72273907e-05  2.19404146e-02  2.30940876e-02 -9.77231647e-04 -3.56519348e-02
  1.14738292e-01 -2.63015740e-03 -3.56806457e-01  3.62451331e-01 -2.15946688e-03
 -1.57909608e-01  2.16916589e-01 -1.16866345e-02  7.40517076e-05  1.88043158e-02
  3.31625281e-03 -4.94292447e-06 -4.32942438e-01 -9.47016125e-02 -1.30106172e-04
  4.41194520e-02 -2.29227863e-02  4.88222551e-02  3.50691937e-02 -1.00461865e-04
 -1.43125841e-02  2.17079424e-02  1.24562666e-03  6.04439319e-03 -1.53848387e-01
 -7.70539256e-03 -3.39383416e-01 -3.91066751e-01 -6.07620331e-03 -1.49580807e-01
 -2.37976969e-01  1.27535734e-02  2.36093365e-04  1.79553200e-02 -3.44634361e-03
  1.86942661e-05 -3.40946356e-02 -2.98818811e-02 -3.66580156e-04 -1.50737967e-02
 -2.18612874e-02  4.24325039e-01  9.25310355e-02 -3.90751927e-04  4.39409630e-02
  2.07768947e-02 -3.71273698e-05  6.22925032e-04  2.03332380e-03 -6.29790566e-01
  5.70627271e-03  3.36960931e-03 -4.96816399e-01  2.48679733e-03  2.20018131e-03
 -1.05405700e-04  1.86941325e-02 -2.94983375e-04  2.53609819e-05 -1.43154871e-05
  2.30839374e-03  6.62961437e-04 -3.13500237e-02 -3.75694531e-05  4.11341433e-04
 -5.26085781e-03 -1.19688123e-03 -3.15668938e-02 -4.31083846e-04 -3.40949353e-04
  1.59872518e-03  3.87272393e-03 -4.71690135e-03 -9.62880776e-01  7.50539625e-04
  1.17835432e-03  9.49527101e-01  8.57572491e-04 -1.16190001e-03 -1.42024180e-03
 -6.38428157e-02  1.09190084e-03 -7.36734163e-04  5.79453367e-04 -4.10466525e-04
  4.59272333e-04  8.64610595e-02  1.01149669e-03  7.98097072e-04  2.23266186e-03
 -7.38716418e-04  8.68590325e-02  3.34864606e-04  9.68245587e-04 -1.25734658e-01
 -4.22011605e-01 -1.41447834e-01  8.31558788e-04  6.47103501e-01  5.38621538e-01
 -9.03856917e-04  4.26921649e-02 -3.68079901e-02  1.24353545e-02 -9.86943541e-04
  6.54877245e-02 -4.40546904e-02 -2.50766793e-04 -2.67056706e-02 -2.22025375e-02
 -4.59653708e-04  2.80084585e-03 -1.64621402e-03  8.74664870e-01  1.15331307e-01
  5.35322536e-04  1.06168333e-01  5.00303730e-02 -1.44190402e-01 -4.74298556e-01
 -1.15328034e-01 -9.92620806e-04 -6.24858074e-01  5.27408549e-01  7.65115971e-04
 -5.36803588e-02 -3.22079614e-03  9.38806565e-03  1.10070875e-04 -5.29050095e-02
 -4.61516933e-02  7.94490503e-05  8.91538573e-01  1.11791811e-01  2.21397091e-04
 -1.03447663e-01  5.74798998e-02  2.83765461e-03 -1.91749912e-02  2.14454310e-04
 -5.85330298e-03  5.98472221e-03  4.92338793e-01  1.21301578e+00 -1.30816511e+00
  1.51734785e-03 -5.57395305e-02  6.17933582e-01 -2.77971253e-04  4.93176060e-02
 -5.74121744e-01  8.40833865e-02  4.63496277e-03  2.50644402e-02  5.50288168e-02
  4.38131701e-03  4.39368283e-02  7.55045745e-02  1.44508240e-04 -7.15190746e-02
 -3.86914895e-02  4.26785761e-02  7.01104962e-02 -2.99062603e-03  6.86842836e-02
 -5.42620159e-02  3.22714647e-02  9.68757884e-02  4.06075985e-01  7.06008797e-03
  4.50742586e-01 -1.46624372e-01 -7.37714684e-02  6.74983510e-01 -1.46471254e-01
 -4.80446538e-03  4.64414687e-02 -7.63247104e-01 -1.60507719e-01 -3.12091055e-01
 -1.14773182e+00  1.80493761e-01  4.38539480e-01  9.57224412e-01 -6.20983289e-01
  6.04701489e-01 -1.40675187e-01 -2.75115029e-01  5.26626989e-01  1.99655081e-01
 -2.22664192e-01 -4.79266444e-01  9.11860126e-01 -3.83591725e-03 -1.44146654e-01
  1.64887758e-01  1.18587290e-02  2.34229360e-01 -5.58657202e-01 -3.37148790e-01
  3.40538291e-02  1.80519437e-01  6.39376737e-01  1.51700990e-01 -4.90777601e-01
  6.34646822e-02  3.23803809e-02  6.62578317e-02 -4.07775840e-02 -3.49787931e-01
  3.55397073e-02 -4.75420464e-02 -4.00399834e-02 -9.59137708e-02 -3.03819906e-02
 -5.26212498e-02  2.87523314e-01  6.52491596e-03  4.10363535e-01  4.12157834e-02
 -2.45369622e-02 -7.18261516e-01 -2.36519441e-01 -6.27972118e-02 -8.25401746e-02
 -6.34790652e-01  1.75447801e-01 -5.14160994e-02  3.03924892e-02 -4.39273250e-02
  1.55257089e-04 -1.27271962e-02 -1.21097767e-01 -4.45415591e-01  1.45094090e-01
  3.42244700e-02 -1.54097215e-01 -1.43882293e-02 -1.53015113e-01 -3.05207819e-01
  6.00853788e-01  1.95170042e-04  4.96436798e-01  1.10945178e-01 -8.37430626e-04
 -8.47088313e-01 -3.80651857e-01  5.27650087e-03  8.35601214e-04  5.06938377e-01
 -1.87359725e-01 -9.75080823e-03  1.13381145e-01  1.64462100e-01  4.36105927e-03
  6.17811288e-02 -3.85047544e-01 -8.21290401e-01 -1.78702561e-01 -2.82714991e-03
  1.67616140e-01  3.96418464e-01 -1.30179118e-02 -3.04390297e-02  4.10518356e-02
 -8.65529846e-02  4.98166579e-02 -9.43786759e-03  2.46027127e-01 -7.38421986e-02
  2.18870046e-02  1.17637681e-01  9.00187278e-01 -8.10330776e-02  5.24770929e-03
  1.01697809e-01  8.44350149e-03 -9.16974921e-03 -1.19012636e-01 -1.74961908e-02
 -2.76032839e-02 -2.52010118e-02  6.28295882e-03 -1.66424215e-01  8.68770316e-03
 -1.04035827e-02  3.64412625e-02  8.23421453e-02  3.16443441e-02  1.33996148e-02
  2.38253161e-01 -6.90096131e-02 -1.68617364e-01  3.12250313e-01  9.09013606e-02
 -9.88409732e-02  1.11528972e-01 -3.78880478e-01 -7.67414883e-02  5.57931256e-01
 -4.47862990e-01  8.68091367e-02 -4.55988830e-01  4.07568147e-01 -3.61294401e-01
  4.10244012e-01 -7.60112926e-02  8.27679192e-01  3.76602593e-01  4.14951319e-02
 -1.95281813e-02 -4.00104581e-02  9.34384612e-02 -1.32864682e-02 -4.74716156e-02
  2.88769925e-02  3.83310344e-02  7.73528636e-02 -9.54024486e-02 -1.23265462e-01
  1.31359849e-01  6.34795308e-02  8.69685726e-02 -8.25483394e-01 -7.47919425e-02
  1.35376628e-02 -2.35310770e-01  2.59018103e-02  1.55783565e-02 -2.87097403e-02
  2.54132209e-03  1.87914824e-01 -1.66654537e-02 -1.99121431e-03  1.58172470e-01
  3.58604804e-01 -5.17104506e-01 -7.94332518e-03  5.26835958e-02  1.57862749e-02
  3.37525422e-02 -5.73171010e-02 -6.02885761e-02 -7.47414226e-01  1.00124884e-01
 -1.56381423e-02 -1.76612264e-01  8.64768865e-02  1.68027839e-01  1.26346363e-02
 -3.90110277e-04  1.30697413e-01  1.47106780e-01  1.34363585e-01 -1.24076979e-03
 -5.06560115e-02 -1.43411083e-01  2.22644510e-01  7.30682565e-02  2.55337901e-01
  1.42546066e+00 -5.99478519e-04 -1.95903537e-01 -4.51590676e-01 -1.52624070e-03
 -1.11631010e-01 -7.45522437e-01  1.02192290e-01  8.41848120e-03  2.92075640e-01
 -6.53576747e-01  2.47160770e-02 -9.24022093e-01  1.02775791e-01 -1.98798266e-02
  5.25805185e-01 -4.04827744e-01 -1.50141771e+00  4.13205488e-01  2.56156275e-02
 -9.42209322e-01 -7.02170201e-01 -4.03228297e-01 -8.18137942e-01  1.43615429e+00
 -4.13848868e-04 -1.36119650e-01  3.14771280e-01  8.09311629e-04  3.04897837e-01
 -8.64995642e-01 -1.61889684e-01  2.94855474e-03 -2.42856892e-01 -5.95719078e-01
 -1.87592072e-03 -1.01890911e+00 -7.30150840e-02  1.94358792e-03 -2.34176629e-01
  1.20973795e-01 -5.96475439e-01 -1.73378024e-02 -2.48453906e-03  2.40529690e-01
 -9.65214436e-02  8.21862548e-02  1.46564814e-01 -5.23885103e-01  5.10972572e-02
 -1.03388142e-01 -2.47744334e-02 -6.21886400e-01 -2.84036087e-01  5.77096356e-01
 -3.51473550e-01  4.27063847e-01  2.28459357e-01 -3.25882346e-02 -1.19717545e-01
  6.51240404e-01 -5.14249732e-02  8.29518042e-01 -4.55789250e-01 -1.12774307e-01
  7.23027832e-02  2.65523092e-02  5.54762478e-01  1.28057148e-01 -4.10185285e-01
  3.94242668e-02  8.75143065e-02  2.20728274e-01 -2.12592812e-02 -7.22817555e-02
 -1.32368142e-01  2.51417260e-01 -9.58574552e-02  3.99828209e-01 -3.89864381e-01
 -1.67602641e-01  3.43665505e-02 -1.71397833e-01 -5.42252286e-03 -5.55715730e-02
  6.30560868e-01 -2.73684164e-01 -5.59399066e-01 -6.23403246e-01  4.59222202e-01
 -1.11907689e+00 -2.83668462e-01 -3.29889881e-01 -4.10116516e-01 -3.03291622e-01
 -5.39556390e-01  2.49222535e+00  2.18442637e-02 -6.99481013e-02 -6.18144710e-02
 -2.56655997e-01  7.14491349e-02 -1.28604577e+00  4.05723310e-01  1.67709696e-01
 -3.54003441e-03 -1.30552121e-01  1.10385864e-02 -8.38192994e-01 -3.01017855e-01
  2.70066439e-01  4.41705962e-01 -9.88911956e-02 -4.76049192e-01 -1.15470975e+00
  2.98042559e-01 -9.87801582e-01  7.29389979e-02  2.45142817e-02  3.85167277e-02
 -2.91799562e-01  2.23365137e-03 -2.13390023e-02  1.91514268e-02 -2.94693981e-02
  1.92625776e+00  1.39924397e-01 -2.15568871e-02  1.84301363e-02 -4.03081971e-01
  2.62440732e-02  1.65386986e-04 -5.32059373e-01 -1.19386629e+00  3.14383369e-02
 -2.29328476e-02 -7.84338723e-01  6.98360762e-01  1.35910691e+00  3.44387399e-02
  1.54303906e-01  8.35005064e-01 -1.66209839e-01 -2.87758649e-01  1.72737591e+00
 -1.41938543e-02  5.26608955e-02 -1.29856583e-01  1.68287104e-01  1.18192734e-01
 -3.66923154e-01 -1.71996668e-01 -1.10070536e-01  5.40845252e-03 -2.17433677e-01
 -3.89966323e-03  1.71258276e-01 -1.63850867e+00 -1.80604418e-01  6.36810598e-01
 -4.26210093e-01 -3.93000137e-01  1.26443048e-01 -1.92218854e-01  8.50025904e-02
 -5.50160887e-01
Total SCF Density                          R   N=          300
  2.01042194e+00  8.74394831e-03  4.64111871e-01 -2.09068589e-02  4.27038230e-01
  5.53232917e-01  7.76904268e-06  4.10339901e-05  2.46058257e-06  7.96575103e-01
  6.04287299e-04  1.31387078e-03  5.20717589e-04 -1.18075696e-04  4.99229789e-01
 -8.15504530e-03  8.57629321e-02  3.17926905e-01  5.66042322e-05 -5.12662932e-04
  6.11175956e-01  2.88150428e-05  4.18417535e-05 -1.24378018e-04  6.06804596e-01
 -6.89427158e-05 -5.07976285e-07  5.00151318e-01  8.38109511e-05 -2.99445331e-04
 -5.32207680e-04 -3.37605476e-05  2.11554462e-01 -2.54204506e-04  4.44366336e-05
  9.65484743e-02 -3.06058129e-03  1.19956500e-01  2.66380153e-01  1.96389839e-06
 -4.65559771e-04  3.74286928e-01 -9.36729716e-05 -7.65717093e-04  2.54709311e-01
  4.59807547e-04 -3.82909334e-03 -1.31658790e-02  6.83778878e-06  8.30755895e-06
 -1.94393545e-02 -4.90677259e-05 -1.65650435e-04 -1.17514984e-02  3.39574973e-03
 -8.51068006e-06 -1.46340844e-06  4.49614710e-05 -2.27573223e-02 -2.70153007e-05
  1.02852176e-05 -1.83734255e-02  6.22176357e-05 -5.53093104e-05 -1.55566918e-05
  3.61490730e-03 -4.73105787e-07 -1.21758279e-04 -1.14123790e-04 -1.09111800e-05
 -2.45224822e-02  4.36801978e-05  1.74259916e-05 -9.47697780e-03 -2.56355983e-04
 -1.11831268e-04  1.26239739e-05  3.49043102e-03 -5.35020724e-04 -1.74164711e-03
  2.42562232e-03  1.82529502e-06 -6.66881432e-05  4.28153532e-03  1.21633607e-05
  4.10696427e-04  1.11214673e-03 -7.94389609e-04  5.93192014e-05  1.56993275e-04
  2.94895604e-03 -3.25478859e-05 -7.82197803e-05  8.47277108e-05  2.39032863e-05
  2.58145124e-06 -1.63916463e-06 -1.46329569e-05 -1.54389039e-05 -6.99066517e-05
  3.59524891e-05 -1.13053291e-04 -1.08475260e-05  7.02111816e-05  3.28318433e-03
 -5.04164936e-03  9.93389364e-02 -1.56073271e-02  1.29975811e-05  3.10270569e-01
 -2.50573432e-01  7.46090423e-05  1.41068919e-01 -1.42503004e-01  8.92909277e-03
 -4.81534101e-05 -1.87415551e-02 -4.81646107e-03 -4.95019416e-05  4.08416921e-01
  8.10501560e-04 -3.56052034e-03 -2.25457119e-02  9.52016699e-05  8.49854922e-02
 -4.57143546e-02  1.10672025e-04  3.84641772e-02 -2.99749830e-02  1.48353673e-03
  9.28325991e-06 -4.50703654e-03 -3.15055654e-04  9.35679603e-06  8.37059227e-02
  2.00813307e-02 -9.60143265e-06 -2.20565539e-05  3.65768492e-06  3.80098123e-02
 -1.63418535e-05 -7.27518493e-06  3.17342073e-02 -2.28245024e-05 -2.26671430e-06
  2.63762123e-05 -1.72375960e-03 -7.33419021e-06  1.17939779e-05  8.61777983e-04
  7.74335589e-06  4.67762129e-06  2.35528036e-03  1.82275674e-03 -2.10195781e-02
 -3.26748630e-03  2.60726372e-06 -1.84464133e-02  3.62690291e-02  2.79961357e-05
 -8.78568983e-03  2.00659450e-02 -1.65933849e-03  1.94803464e-05  1.40897916e-03
  6.15081450e-04 -8.20532476e-06 -4.24378198e-02 -7.21935942e-03 -1.41370021e-05
  5.64352329e-03 -1.69127221e-03  1.92232155e-02  1.97898316e-02 -4.08664723e-05
  2.87074103e-02  6.25593553e-03 -2.18384330e-06  1.36280970e-02  6.90078812e-03
 -5.97922327e-04  4.75925073e-06 -1.62696005e-03 -3.19192244e-04 -3.48552058e-05
  2.58308312e-02  5.26287722e-03 -1.33383108e-05 -2.33903313e-03  3.20324325e-03
 -4.46884242e-03  1.01634663e-01 -1.64290104e-02  2.29663565e-05 -3.11808039e-01
 -2.52517473e-01  2.97138331e-05 -1.40698749e-01 -1.42571522e-01  8.87022945e-03
  1.35782381e-05  1.86425686e-02 -4.41360422e-03 -4.20668509e-05 -5.00944302e-02
 -3.69238662e-02  3.27534049e-06 -1.31198497e-02 -1.52557765e-02  4.05005679e-01
  9.84218397e-04 -3.40112237e-03 -2.24338826e-02 -8.66806677e-05 -8.45503551e-02
 -4.54140100e-02 -1.01828552e-04 -3.82834038e-02 -2.96514857e-02  1.53802211e-03
 -1.27991699e-05  4.45211268e-03 -3.29192185e-04  1.90601296e-06 -3.72234032e-02
 -1.20550551e-02 -7.58177881e-06  4.95345287e-04 -5.79983079e-03  8.20809440e-02
  1.98304656e-02  7.55973378e-06  1.12408412e-05  1.18560367e-05  3.82671390e-02
 -1.40005528e-05  1.56523244e-05  3.19727217e-02 -4.01371967e-05  4.48311442e-05
  2.85849225e-05 -1.66488007e-03 -1.66376106e-05 -3.54651940e-05 -8.12174910e-04
 -5.24011943e-06 -6.60512468e-06  1.91191780e-03  1.47175644e-06 -9.22675029e-06
 -6.07852169e-06  9.14804486e-06  2.35768579e-03 -1.85386757e-03  2.13891410e-02
  3.12152146e-03 -2.30516810e-05 -1.88714796e-02 -3.67508374e-02 -1.65557086e-05
 -8.43822409e-03 -2.01427665e-02  1.67646314e-03  6.40248841e-06  1.46229901e-03
 -5.31925448e-04  1.18160088e-05  1.29283434e-02 -4.07169083e-04  1.82206619e-05
 -3.75222367e-03 -2.69061405e-04  4.30357590e-02  6.95295524e-03 -1.50070940e-05
  6.07728529e-03 -1.67732823e-03  1.97179317e-02  1.98050991e-02  1.95106861e-05
 -2.92999487e-02  6.03244730e-03  4.66120307e-05 -1.37068607e-02  7.05481239e-03
 -6.96227794e-04  2.60137929e-05  1.65458140e-03 -4.08800520e-04 -1.11434945e-05
 -1.52992764e-02 -5.76980492e-03 -1.52355762e-06  3.23976103e-04 -7.96834710e-04
  2.61837946e-02  5.09262034e-03 -1.92048546e-05  2.52242051e-03  3.48268430e-03
Natural orbital occupancies                R   N=           20
  9.99985690e-01  9.94401710e-01  9.86837666e-01  9.85614205e-01  9.88705168e-01
  6.52770979e-03  1.07646399e-02  1.25708238e-02  3.54211751e-03  5.40620789e-06
  2.49790731e-03  1.86457914e-03  3.70906639e-04  1.68077628e-03  4.93802208e-06
  2.26921488e-03  1.75657574e-03  2.20603119e-04  3.75396257e-04  3.96567780e-06
